@relation W1

@attribute id string
@attribute x1 numeric
@attribute x2 numeric
@attribute x3 numeric
@attribute x4 numeric
@attribute x5 numeric
@attribute x6 numeric
@attribute x7 numeric
@attribute x8 numeric
@attribute x9 numeric
@attribute x10 numeric
@attribute x11 numeric
@attribute x12 numeric
@attribute x13 numeric
@attribute x14 numeric
@attribute x15 numeric
@attribute x16 numeric
@attribute x17 numeric
@attribute x18 numeric
@attribute x19 numeric
@attribute x20 numeric
@attribute x21 numeric
@attribute x22 numeric
@attribute x23 numeric
@attribute x24 numeric
@attribute x25 numeric
@attribute x26 numeric
@attribute x27 numeric
@attribute x28 numeric
@attribute x29 numeric
@attribute x30 numeric
@attribute x31 numeric
@attribute x32 numeric
@attribute x33 numeric
@attribute x34 numeric
@attribute x35 numeric

@data
"ex1",-0.23,-1.21,1.20,1.23,-0.10,0.12,2.49,1.19,1.34,0.58,1.22,2.30,4.65,5.82,4.91,3.16,2.25,4.01,0.82,2.28,1.01,0.09,1.22,-0.23,-0.14,1.11,0.02,-1.32,-0.11,-0.47,-0.63,-0.86,-0.70,0.51,0.34
"ex2",0.38,0.38,-0.31,-0.09,1.52,1.35,1.49,3.81,2.33,1.34,1.45,3.70,3.08,5.01,3.27,3.40,2.23,2.56,2.15,-0.90,-0.37,-1.78,-0.40,0.45,-1.32,0.40,0.13,0.11,-0.78,2.36,0.31,1.28,1.40,0.00,-0.18
"ex3",-0.69,1.00,1.08,1.48,2.44,3.39,3.09,4.08,5.48,3.61,0.47,1.68,2.35,-1.04,0.63,-0.87,-0.80,0.63,0.35,-0.10,-1.42,2.14,0.57,1.21,-1.64,0.20,0.07,0.64,0.41,-0.12,0.93,0.29,1.12,0.60,0.28
"ex4",0.40,0.68,0.27,1.39,1.03,-0.32,-1.23,-0.50,0.11,0.87,1.27,4.41,3.51,4.88,4.66,5.71,2.72,0.95,1.94,0.47,-0.47,1.21,1.12,0.57,1.12,0.12,0.10,0.20,3.10,-0.34,1.18,0.43,-0.30,-0.07,-0.99
"ex5",-0.81,1.59,-0.69,1.16,4.22,4.98,4.52,2.54,5.60,4.66,4.25,1.58,2.51,2.40,1.82,0.34,2.09,0.29,-2.47,2.47,-0.25,-0.66,0.75,0.19,0.31,0.21,1.19,-0.55,-1.43,-0.29,-0.07,0.62,0.14,1.33,-1.87
"ex6",0.59,0.77,-0.61,1.00,1.80,2.08,2.16,3.59,4.08,3.63,4.27,4.43,3.45,2.47,3.64,0.14,-0.07,0.32,-1.09,-0.03,-0.19,-0.50,-1.22,-0.42,-1.27,-0.62,0.34,-0.58,2.23,-0.65,-0.15,1.23,-0.29,-1.62,0.19
"ex7",-0.15,0.13,2.27,2.39,4.00,6.14,5.36,4.08,3.81,3.89,2.46,1.78,-1.43,0.70,1.08,1.90,-1.00,-0.31,0.37,1.30,-0.18,0.28,-0.61,1.23,-0.19,-2.05,0.14,1.53,-1.17,0.84,0.40,0.25,-0.78,-0.12,-0.35
"ex8",-0.30,-0.42,0.25,-0.61,-1.39,-0.60,1.71,4.01,2.96,5.81,6.56,5.69,5.46,2.72,1.27,2.12,1.79,0.20,1.19,0.25,1.40,0.04,0.56,0.26,2.06,-0.63,-0.19,-0.74,0.15,0.68,-0.60,-0.00,0.28,0.61,-0.40
"ex9",-1.45,2.71,3.04,3.21,4.26,5.01,6.24,5.09,3.95,4.84,2.15,-0.30,1.53,-1.19,-1.35,1.42,0.01,0.98,-0.00,-0.22,0.70,0.13,0.63,0.37,0.81,-0.04,0.54,-0.68,1.07,0.06,-0.40,-1.18,0.07,1.91,-0.15
"ex10",0.28,0.97,-1.01,-2.34,-1.89,0.54,0.05,2.05,2.38,3.66,3.09,5.12,4.14,3.70,3.89,3.86,4.91,2.70,2.18,1.17,-0.10,0.36,0.19,-0.92,-0.83,-1.15,0.29,0.17,-0.86,0.78,0.91,-0.12,1.52,-1.52,-0.16
"ex11",-1.09,-0.44,1.15,0.17,2.10,3.77,2.40,5.16,5.13,3.66,2.42,2.83,1.02,1.26,0.88,0.10,-0.55,-0.38,0.96,-1.10,0.94,-0.87,1.37,-0.16,3.17,-0.26,0.13,0.08,1.26,1.58,1.33,-0.24,0.77,0.95,-0.43
"ex12",0.50,-1.23,-0.09,0.31,2.22,-0.02,2.24,-0.07,1.98,2.27,4.94,3.97,3.85,3.19,5.06,3.03,3.24,1.09,3.17,0.58,2.36,-1.26,0.67,0.48,1.03,1.61,1.29,-0.32,-0.40,0.05,1.01,-1.18,-0.52,-1.41,-3.49
"ex13",-0.23,-0.44,1.04,0.38,0.53,-0.95,0.97,1.57,1.48,4.88,4.70,4.73,5.38,4.65,2.88,0.71,-0.71,0.35,0.67,0.05,0.86,0.28,0.35,-2.03,-1.05,-0.30,-0.72,-0.74,-0.67,-0.35,2.22,-0.97,0.78,0.09,-0.70
"ex14",-1.20,-1.04,-0.06,1.24,-1.41,0.30,1.23,3.20,3.53,3.25,5.93,4.94,5.79,3.47,1.96,3.28,-0.05,1.18,-1.89,0.23,0.31,-2.38,-0.50,-1.31,-0.69,0.58,1.02,-1.81,-0.50,0.67,-0.44,0.35,0.25,0.29,-0.73
"ex15",-0.53,0.80,0.10,0.25,0.59,-0.38,-0.13,0.31,0.66,2.79,3.31,3.46,4.06,4.04,4.28,3.98,4.51,1.82,2.32,0.58,-0.11,-0.63,0.48,0.45,-1.96,0.36,0.54,-0.60,-0.75,-0.30,-0.35,-1.43,0.59,-1.23,-0.42
"ex16",-0.17,-0.27,-0.46,2.09,-1.32,0.88,2.20,2.13,2.04,3.54,4.04,5.12,5.06,2.54,4.91,1.90,2.18,1.17,-0.10,0.64,-0.01,-0.02,-0.75,-1.31,1.10,0.50,0.68,0.32,-1.19,-0.74,-0.43,-0.49,0.08,0.57,-0.63
"ex17",0.58,1.69,-0.77,0.36,0.37,0.49,0.87,1.67,1.64,2.29,5.70,5.64,4.20,3.62,3.48,2.27,1.72,2.58,1.87,-0.54,-1.98,-0.46,0.48,0.21,2.26,-0.49,0.22,-0.07,-0.55,-0.63,1.04,-1.03,-1.72,-0.09,0.43
"ex18",-1.06,-1.26,-0.87,0.83,-0.38,-0.35,1.00,1.38,1.59,3.01,4.67,3.71,2.54,4.71,5.07,2.89,3.19,1.78,2.19,1.56,0.45,-1.19,-0.71,-0.10,-0.95,0.70,0.07,-0.58,-0.27,-1.44,1.19,1.79,-0.01,-2.63,-1.91
"ex19",1.86,1.31,1.27,1.55,2.59,2.82,3.78,4.89,4.27,3.64,5.60,3.20,1.04,0.03,0.51,2.25,-0.73,1.61,0.49,-1.87,-1.29,-1.40,1.81,-0.80,0.99,1.18,-1.61,1.17,1.62,-0.44,-1.05,-1.17,-0.47,0.75,-2.19
"ex20",0.15,1.01,-0.18,0.68,1.61,1.83,1.66,2.22,2.90,2.80,1.62,2.96,3.07,3.33,4.33,2.98,1.65,1.66,0.45,1.83,2.44,-0.71,0.62,-0.16,0.05,0.92,0.23,0.18,-0.71,-1.07,0.95,-0.44,-0.09,-1.66,-1.13
"ex21",0.25,-1.42,-1.39,2.87,0.56,2.03,1.12,1.28,1.97,5.59,6.16,5.66,3.07,3.31,1.21,0.13,-0.47,1.26,-1.94,1.29,-0.01,-0.52,-0.16,0.46,0.52,0.06,0.56,-0.94,0.28,-0.51,0.61,0.90,-1.14,1.03,0.79
"ex22",0.49,0.08,0.14,0.45,2.66,2.34,2.55,0.44,1.67,1.63,1.66,1.53,2.82,3.33,4.31,2.05,1.64,0.53,0.45,0.32,1.78,-0.29,0.31,-1.22,-2.15,-0.94,0.53,1.17,-1.26,-0.29,0.64,-0.21,1.00,0.66,0.61
"ex23",-0.53,2.45,-0.22,3.77,2.97,2.51,4.76,4.51,3.03,2.23,1.52,2.16,1.35,1.66,1.77,1.60,1.01,1.74,0.50,-1.59,-1.14,0.30,-0.06,-1.12,1.15,-0.03,-0.07,-1.84,-0.03,0.59,0.58,0.05,1.48,0.04,1.10
"ex24",-1.22,1.78,1.56,0.69,-0.57,-1.49,0.80,2.20,3.15,1.41,5.40,4.84,6.03,5.24,4.93,2.97,2.54,2.34,-0.26,1.67,0.32,0.32,-0.82,0.79,-0.26,1.15,1.18,0.73,0.42,-0.67,0.69,1.24,-0.36,0.52,-0.20
"ex25",0.66,-0.02,1.62,1.42,4.45,5.81,5.65,3.74,2.06,3.68,2.57,-0.02,0.34,-1.69,-0.84,1.11,-0.61,0.10,0.15,0.62,1.22,1.19,0.79,-1.17,0.69,-0.05,-0.22,0.02,-0.15,-0.60,0.71,-0.32,1.60,2.46,0.03
"ex26",1.00,1.62,1.03,2.16,1.36,3.28,3.16,4.30,4.59,4.43,4.06,3.29,0.61,-0.39,1.15,0.12,-0.70,1.02,1.48,1.98,-0.16,1.62,-1.49,-0.37,1.31,-1.19,-0.68,-0.35,0.49,-1.81,-0.03,-0.12,1.58,0.19,-1.34
"ex27",0.05,-0.19,-0.20,-0.03,0.94,2.32,1.83,3.10,3.41,3.03,5.31,5.80,5.66,5.40,2.18,1.11,0.71,1.15,1.41,0.24,0.04,0.16,-0.57,2.05,0.42,-1.81,0.47,-0.28,1.13,-0.81,1.25,0.59,-2.12,-0.66,-0.76
"ex28",-0.76,-0.99,1.09,1.32,3.54,5.75,5.41,4.03,5.10,1.81,0.85,1.97,0.48,0.02,1.93,-0.12,2.02,-1.27,0.42,0.93,-1.10,0.36,1.45,0.48,-0.96,0.28,1.47,0.61,1.50,-0.62,1.19,-0.86,0.20,0.03,0.88
"ex29",1.56,1.65,2.23,0.37,0.39,2.86,4.61,1.98,1.08,0.84,1.82,2.75,1.53,1.91,2.68,1.73,2.34,1.96,1.67,1.46,-0.07,-1.21,1.94,-0.86,0.63,1.17,-0.43,0.28,0.24,0.49,-0.17,0.02,-0.00,-0.20,0.28
"ex30",0.79,0.75,0.45,1.16,1.47,1.78,2.48,2.64,0.87,-0.03,0.41,2.66,2.42,2.47,2.02,2.51,2.60,1.11,1.30,0.09,0.33,0.42,0.07,1.89,-1.52,1.69,1.28,-0.70,2.48,-1.37,-1.38,2.86,-0.83,-0.13,0.54
"ex31",1.85,-0.12,1.02,-0.47,1.43,-0.79,0.49,0.27,1.27,1.74,2.83,3.14,5.14,5.59,3.82,5.27,3.71,2.19,2.51,1.57,0.91,-0.43,0.87,0.77,0.91,-0.46,-0.70,0.20,0.57,-0.96,0.94,0.36,-1.14,-1.18,-0.59
"ex32",-1.13,-0.62,1.18,0.48,0.81,3.08,4.28,4.07,5.44,3.99,5.32,3.41,2.58,1.57,1.50,0.64,0.07,0.43,-1.71,0.82,1.09,-2.34,0.04,-1.09,0.27,-2.38,1.21,1.68,-0.87,0.28,-0.45,1.25,0.17,0.12,0.91
"ex33",-1.54,-1.01,-0.49,0.29,0.88,1.09,0.13,0.44,2.44,2.82,3.58,3.61,3.11,1.68,4.11,1.41,3.89,2.77,1.42,-0.18,-1.28,0.73,0.21,0.39,-0.50,0.31,1.69,0.23,-0.02,0.76,0.16,-0.33,1.22,1.14,0.48
"ex34",0.83,-1.33,0.47,-0.44,0.87,2.19,0.79,2.00,0.06,3.16,2.11,3.03,2.63,3.99,3.32,5.00,2.28,1.05,1.65,-0.52,0.47,-1.26,-0.53,-0.85,0.87,-0.60,-0.75,2.26,-0.12,-0.46,0.87,-0.14,-1.19,0.09,-2.30
"ex35",-1.49,0.13,-0.26,0.61,-0.78,0.61,1.67,1.52,4.10,4.08,4.98,5.29,2.75,4.80,4.15,3.41,1.76,1.66,0.90,0.72,-0.84,-1.60,0.83,-2.23,-1.56,-0.34,0.17,-0.89,-0.75,0.48,-2.23,0.43,1.31,-0.09,-1.72
"ex36",-1.03,1.09,0.70,-0.14,-0.24,1.95,0.36,-1.99,0.46,2.07,0.95,2.12,4.14,4.59,4.22,6.04,3.56,2.83,3.50,-0.39,0.61,-0.99,1.53,0.33,0.18,-0.63,0.66,1.27,-0.94,-0.17,0.12,-1.20,1.11,-1.30,0.87
"ex37",-1.38,-0.86,-0.53,1.98,2.12,3.58,6.25,3.33,5.11,4.90,3.34,1.18,0.58,0.87,2.95,-0.85,0.12,-0.72,-1.22,1.96,-0.74,-0.44,0.10,0.57,-0.73,0.98,0.27,0.07,-1.10,-0.03,-0.45,0.21,-0.52,-0.48,-0.93
"ex38",-0.68,0.75,-0.41,2.83,1.42,2.83,1.14,1.20,2.54,1.30,0.64,2.29,3.67,3.99,3.35,3.14,1.55,1.79,0.73,-1.33,-0.49,0.17,-2.20,0.69,0.12,1.17,0.36,-1.65,-1.28,-0.66,-0.56,0.39,-0.60,-0.73,-0.54
"ex39",-0.42,0.27,2.67,2.96,1.85,3.77,3.07,3.63,5.36,4.82,3.68,2.27,1.11,3.02,-0.13,0.78,0.78,1.07,1.36,-0.33,-0.24,0.19,-0.38,0.36,-0.87,-0.26,1.32,0.76,-0.78,0.18,-0.54,0.38,-1.35,1.08,-0.27
"ex40",0.55,0.95,0.80,3.14,1.90,1.90,3.87,1.95,2.21,0.43,2.84,0.48,2.84,1.45,2.01,2.83,2.95,2.27,1.02,1.55,-0.62,-0.68,0.01,-1.23,-2.06,0.80,-0.40,2.38,-0.82,0.23,-0.39,-0.11,-1.19,0.39,2.06
"ex41",-1.47,3.21,0.41,0.65,0.39,3.69,2.03,3.51,4.33,5.06,7.09,3.42,2.25,2.47,2.76,0.50,0.21,-1.20,-1.06,-1.12,1.32,-2.24,-1.19,-1.45,-0.34,1.11,-0.08,-0.09,-1.12,-0.02,-0.73,-0.74,-1.94,1.43,-0.31
"ex42",0.25,-0.38,0.64,0.57,2.13,1.43,2.69,2.04,2.13,1.44,1.90,2.53,3.16,2.35,1.84,3.51,2.22,1.34,2.11,1.25,1.02,-1.55,0.41,0.92,0.78,0.82,-0.23,0.98,0.15,-1.28,0.01,1.72,-0.36,-1.07,0.47
"ex43",-0.27,-1.34,-0.50,-0.76,0.14,0.12,-1.01,2.88,0.70,1.93,1.89,4.34,5.21,3.05,3.28,0.48,2.04,1.43,1.92,1.55,0.76,-0.09,1.40,-1.38,-1.16,1.16,-0.37,1.16,-1.41,-0.37,1.07,1.36,0.02,-1.31,-1.70
"ex44",-0.50,0.13,1.99,-2.00,0.46,0.93,3.68,3.76,1.71,5.42,6.64,4.53,4.74,1.65,2.71,0.18,0.95,0.76,1.01,-0.79,0.22,-1.05,1.14,2.28,-2.58,-0.78,-0.34,0.33,-0.81,0.45,1.14,2.17,-1.69,1.53,-0.29
"ex45",-0.91,0.46,1.58,0.98,3.88,4.62,3.22,4.57,3.89,3.69,3.96,4.11,1.62,-0.05,0.19,0.36,-0.53,1.51,-0.47,0.43,0.74,0.64,1.48,1.21,0.40,-0.60,0.13,-0.21,0.44,-0.92,-1.06,1.13,-0.15,-1.27,-0.18
"ex46",-0.22,0.94,0.60,0.96,1.35,-0.30,1.22,0.61,0.58,1.25,1.44,2.80,2.36,3.13,5.21,4.17,4.61,0.83,0.14,1.52,-0.86,-0.47,0.15,-1.65,-1.20,-0.63,0.32,0.62,-1.66,0.86,0.75,-1.02,-1.03,-1.29,-1.08
"ex47",1.55,0.36,-2.51,0.52,-1.00,0.43,-0.32,-0.85,-0.49,1.27,3.48,4.01,2.74,5.22,6.24,6.82,2.56,2.09,1.02,3.86,-0.66,-2.53,-0.58,-0.72,1.01,-0.07,1.04,2.35,0.86,-0.58,-0.74,-0.67,-1.31,-0.91,0.12
"ex48",0.16,0.56,0.24,0.77,0.99,1.33,2.67,4.04,5.53,6.73,4.15,4.43,1.80,2.99,1.64,0.10,-0.63,0.50,0.43,-0.92,-0.24,-0.14,-1.79,-1.01,0.44,-0.24,-0.43,-0.91,0.52,2.03,0.28,-0.73,-0.06,1.22,1.37
"ex49",0.45,-0.56,0.89,-0.47,1.91,1.46,3.02,4.34,4.76,4.22,6.92,4.78,1.99,3.22,1.70,0.19,-1.61,-0.29,-1.16,0.12,-1.58,-1.00,1.53,0.78,-1.07,1.01,0.58,-0.33,0.11,0.39,-0.64,0.08,-2.21,-0.09,-0.53
"ex50",-0.40,-0.03,-0.69,-1.47,0.17,-0.51,1.78,2.84,3.26,6.08,3.52,3.21,3.41,3.90,1.97,0.41,-0.49,0.06,-1.91,0.76,1.11,0.82,-0.29,0.15,-0.72,0.68,-0.68,-1.37,-0.31,-1.88,0.69,0.04,0.04,-1.05,-0.03
"ex51",0.76,-0.03,-0.03,0.07,-1.39,1.68,-0.91,2.00,1.12,3.21,3.54,3.78,5.98,3.63,2.44,4.05,1.66,4.07,0.51,1.73,-0.34,-0.83,0.18,-0.10,-0.14,-1.42,-0.92,0.21,2.15,-0.48,-0.57,1.41,1.09,-0.40,-0.51
"ex52",-0.97,-1.07,0.16,2.32,1.73,2.15,2.10,3.91,2.22,2.93,1.26,3.03,1.60,3.66,4.05,2.49,2.67,1.46,2.20,1.69,-2.09,-0.13,-0.41,1.84,-0.67,-0.20,0.30,2.05,0.79,0.07,-0.26,-0.84,-0.44,0.42,-0.51
"ex53",1.24,-0.19,0.36,0.43,-0.36,0.73,2.89,0.98,-0.64,2.39,2.63,3.90,2.53,2.69,4.79,3.40,2.96,2.32,3.02,1.38,0.23,0.34,-0.15,1.07,1.81,0.18,0.46,-0.60,-1.11,0.62,-1.16,0.55,-0.48,1.03,0.90
"ex54",-1.12,0.81,2.97,2.00,1.61,1.23,1.68,1.19,3.41,2.06,4.12,2.61,5.80,4.69,3.90,4.59,3.32,1.77,0.71,0.05,1.76,0.38,-1.04,1.53,1.44,1.49,-1.57,-0.79,1.75,-1.02,-0.12,0.75,-0.20,0.14,-0.31
"ex55",0.84,-0.70,-1.76,1.08,0.41,0.48,2.02,2.25,2.91,5.53,5.92,6.56,3.37,2.97,2.12,2.28,0.17,-1.40,0.27,-0.43,-0.70,0.79,-0.64,0.23,-1.23,0.84,1.82,-1.35,0.81,-1.05,-0.71,0.40,1.44,-1.92,0.16
"ex56",1.34,0.02,-1.13,0.74,-1.58,0.63,0.91,0.56,2.13,2.62,2.62,2.50,3.74,3.83,4.15,2.61,3.62,1.45,0.09,0.29,-0.44,-0.88,-0.09,-0.70,-1.37,0.14,-0.18,-0.44,-0.95,-1.53,-0.22,-0.35,0.29,0.36,-1.09
"ex57",-0.59,-2.16,0.67,-0.72,-0.40,0.60,1.62,4.62,2.76,2.69,6.09,4.81,3.48,2.97,0.45,0.09,0.26,-1.47,0.95,-2.27,0.84,-0.70,-1.36,0.46,-0.38,0.48,1.93,-1.68,-0.21,1.92,0.31,-0.35,-2.63,-0.49,0.37
"ex58",0.30,-1.23,0.16,-0.88,0.24,1.08,1.48,1.62,3.75,5.12,5.50,5.46,5.32,3.64,2.46,-0.69,0.92,1.43,-0.28,0.86,-0.93,0.76,-0.81,-0.69,-1.49,0.55,0.51,-0.22,0.80,-0.60,-0.76,-1.10,1.44,0.87,-0.47
"ex59",2.61,0.59,0.89,0.77,0.51,1.22,1.02,1.92,3.49,4.45,5.59,4.05,3.78,3.12,0.93,1.39,-0.58,-0.66,1.35,-0.59,0.24,-0.89,-0.94,1.41,-1.20,1.91,0.47,1.37,-2.63,-0.94,0.39,0.38,-0.02,1.28,-0.24
"ex60",0.48,0.75,0.94,0.08,1.96,3.03,4.01,2.40,2.33,5.20,5.72,5.48,2.77,3.71,1.28,0.24,1.11,-0.92,0.73,0.32,0.96,-0.22,-0.14,-0.60,0.23,-0.48,0.93,-0.00,-1.03,-1.78,-0.94,0.41,-0.16,-0.23,0.97
"ex61",-0.34,0.32,0.88,-0.41,-0.45,2.16,1.68,2.52,3.88,5.52,4.00,3.63,5.65,2.47,0.93,1.49,0.24,0.80,1.51,-0.36,0.50,0.81,1.10,-0.60,0.34,0.29,3.39,0.20,1.78,0.33,2.29,1.45,0.97,-1.14,-0.54
"ex62",0.63,0.31,-0.59,-0.37,-0.17,-0.32,-0.10,0.49,0.96,3.48,6.84,4.10,5.51,4.23,4.51,4.59,4.24,1.22,1.83,1.59,0.83,0.77,-0.63,-2.70,0.34,-0.85,0.35,1.48,-0.11,-0.81,0.69,-0.58,-0.92,0.28,0.39
"ex63",-0.13,1.59,0.90,-0.14,0.93,4.06,4.58,4.17,4.24,5.14,5.31,3.98,3.36,2.33,-0.79,1.18,0.11,-0.07,0.24,0.13,0.65,0.19,-0.09,-0.77,0.97,-1.09,0.36,-0.17,2.21,0.04,-0.17,0.18,1.08,1.00,0.71
"ex64",-0.08,1.22,0.91,4.47,3.51,4.36,6.32,4.01,5.23,2.37,1.46,1.87,-0.08,-1.19,0.23,0.96,-0.08,-0.07,-1.27,0.31,0.28,0.22,0.39,0.93,-0.54,-0.18,0.53,0.62,0.31,0.33,0.11,-0.00,2.70,0.79,0.42
"ex65",0.80,0.92,-0.84,1.50,-1.85,-0.02,1.29,3.14,5.44,3.88,4.56,3.81,4.36,2.13,2.16,1.43,-1.89,-0.95,-1.19,0.29,1.17,0.84,-1.23,-1.03,-0.77,-2.04,2.43,0.62,1.51,0.48,0.85,-0.52,0.39,0.79,-1.18
"ex66",0.04,0.09,0.93,1.89,2.86,3.58,3.70,4.70,3.78,0.70,3.23,0.21,1.14,3.09,2.17,2.54,2.09,1.84,0.31,1.11,0.56,2.12,-0.36,-0.80,0.49,0.63,-0.83,2.57,-1.01,-0.01,-1.39,-0.40,-0.18,1.18,0.16
"ex67",-0.44,-0.43,1.20,1.37,1.89,2.08,3.89,5.05,5.11,3.10,2.76,3.23,0.87,2.92,0.83,2.37,0.36,1.35,1.69,1.95,0.22,0.94,0.37,0.62,0.61,-1.51,3.27,2.30,0.52,-2.03,0.92,0.14,-0.19,1.73,-0.22
"ex68",-0.43,0.67,2.20,2.28,1.64,3.19,4.38,5.09,4.54,2.15,1.19,-0.06,-0.93,-0.94,0.78,1.70,-1.35,0.64,-0.58,-0.66,-0.41,1.26,0.84,-1.18,0.85,1.01,0.88,-0.71,-1.57,0.62,0.64,0.70,0.21,0.84,0.62
"ex69",-0.63,0.57,0.09,0.19,3.28,3.64,3.65,2.69,2.34,4.11,0.52,1.07,2.77,2.30,1.00,5.97,2.27,2.29,3.50,0.36,0.17,0.01,-0.00,-0.58,0.32,0.77,-1.86,-0.43,-1.34,0.99,2.02,1.08,-0.25,-3.20,-0.49
"ex70",-1.45,0.44,2.43,2.52,1.94,3.74,4.74,3.86,5.42,4.02,3.55,1.46,0.48,1.50,-0.08,-1.02,-1.61,-0.21,-0.05,-1.24,-0.28,-0.17,1.21,-0.44,-0.28,1.17,0.16,0.85,0.43,-0.29,0.23,1.61,-2.17,0.72,-1.32
"ex71",1.36,1.27,1.49,2.79,1.05,2.08,2.98,3.06,2.50,4.60,4.78,2.89,3.61,1.66,2.17,-0.29,1.62,1.93,-1.19,-0.43,0.32,0.10,0.15,-1.02,-0.36,0.64,0.71,1.24,0.52,-0.70,-0.22,-0.81,0.46,0.17,1.97
"ex72",-0.12,0.34,-0.28,-0.20,1.39,2.94,3.01,3.00,3.71,5.42,4.95,3.26,3.47,3.16,-2.06,0.73,0.50,0.46,-1.22,-0.24,-0.53,-0.71,1.63,1.07,0.94,0.59,0.63,-0.85,0.11,1.82,-0.51,0.78,0.22,0.54,-2.88
"ex73",0.27,0.68,0.59,0.49,0.46,-1.73,-0.55,1.59,0.92,3.19,4.50,4.61,4.14,4.76,4.38,4.56,2.35,3.33,0.33,1.38,0.12,1.11,-1.62,-1.26,-0.11,2.13,-1.75,-0.95,0.78,0.03,0.78,-0.15,-1.21,0.53,1.41
"ex74",0.33,0.29,1.18,3.16,2.86,1.58,2.00,1.40,1.99,2.05,3.02,2.45,4.82,2.32,1.51,2.34,2.76,-0.32,2.79,-0.25,1.33,1.22,0.19,-0.54,2.63,-0.25,0.60,0.03,-0.36,1.05,-2.73,-0.98,-0.33,0.31,-1.20
"ex75",0.15,1.52,1.25,1.82,4.00,3.58,6.94,3.63,3.30,2.49,3.32,1.50,0.78,0.52,0.81,-0.68,1.56,-0.60,-1.50,-0.29,1.74,-1.87,-0.24,0.42,-0.32,-0.34,0.74,-0.20,-1.12,-0.10,-1.07,0.26,-0.86,-0.80,1.35
"ex76",-1.40,0.14,0.16,1.11,0.34,1.04,-0.75,1.75,-0.63,1.06,1.36,3.47,2.87,3.56,5.99,6.42,3.04,3.29,2.24,-0.81,-0.38,-0.70,0.01,-0.81,-0.98,-0.13,1.33,0.69,0.68,0.40,-1.07,-0.28,-0.03,1.86,-0.62
"ex77",0.62,1.80,2.27,2.64,0.92,4.25,4.84,3.14,5.00,1.26,4.29,1.09,0.97,2.30,3.08,1.71,1.65,1.53,-0.34,-0.16,-0.79,0.15,-1.09,0.07,-0.23,1.62,0.80,-2.11,1.68,0.98,0.92,-0.40,1.40,-1.74,0.93
"ex78",-0.04,-0.57,0.50,0.61,-0.66,2.14,2.80,2.90,3.66,6.13,6.15,4.07,3.88,2.16,2.05,-0.00,-0.32,0.64,-0.07,-0.28,1.45,0.97,0.00,0.01,1.04,-0.54,0.10,-0.65,-0.82,0.23,-0.29,0.11,-2.03,-1.91,-0.39
"ex79",0.60,1.20,0.35,0.06,2.08,1.95,2.98,1.48,1.72,1.35,-0.10,2.34,1.26,2.83,4.90,3.21,1.44,2.15,1.48,1.64,-0.61,-0.42,0.58,1.32,0.07,-0.35,0.58,0.95,0.64,0.45,-0.55,-0.59,0.40,0.38,0.07
"ex80",0.20,-0.03,0.55,-0.44,0.62,2.23,3.31,3.29,3.03,5.43,3.18,3.83,3.13,0.97,0.25,1.87,0.06,0.78,-0.30,1.65,1.77,-0.69,-0.78,0.87,0.56,0.32,0.26,-1.91,1.58,1.07,-0.03,1.10,1.08,-0.58,-0.95
"ex81",0.36,-0.31,-0.79,-1.17,-1.57,1.57,-0.37,1.16,-0.51,1.76,2.35,2.54,3.90,3.91,4.31,4.55,1.41,2.62,0.12,1.43,0.13,2.09,-0.10,1.46,-0.59,-0.83,1.18,0.26,-1.06,0.46,-1.68,-0.37,-1.75,-0.30,0.68
"ex82",-1.67,0.59,-0.69,0.22,1.13,1.57,3.11,2.53,3.57,6.00,5.83,2.18,2.09,3.93,1.21,0.76,-0.41,1.86,0.40,-1.84,0.53,-0.08,-1.39,0.96,-0.26,0.75,0.54,-1.08,0.74,-2.25,-1.02,-1.22,0.23,0.79,-0.37
"ex83",1.76,-1.47,1.80,0.61,1.54,1.40,3.04,2.96,2.95,3.26,6.00,4.02,3.08,2.88,1.11,0.38,-0.41,-0.97,-0.13,-0.16,0.99,-0.79,-0.31,2.42,0.38,-0.31,-1.09,-0.44,1.08,0.24,-0.05,-0.69,0.95,1.06,1.94
"ex84",-0.27,-2.44,1.12,1.55,1.62,3.59,4.62,3.64,1.39,3.67,2.51,0.99,0.86,0.43,0.71,1.63,1.77,1.07,1.91,2.01,-0.92,-0.51,-0.94,0.69,-0.11,-1.43,1.56,-1.29,2.02,-0.41,1.46,1.70,-0.34,0.12,-0.85
"ex85",-0.18,-1.98,0.01,0.60,-0.11,1.07,-0.08,2.22,2.32,1.36,2.97,5.34,4.26,4.60,6.70,3.16,4.43,0.92,-1.18,1.25,-1.10,-0.69,-1.44,-1.01,1.63,0.00,0.77,0.32,-0.03,0.25,0.68,0.56,0.82,-0.48,-0.59
"ex86",0.88,2.12,2.67,2.34,5.43,3.75,5.50,3.39,6.25,1.43,2.64,1.80,0.68,0.34,1.15,-1.34,0.81,-0.14,1.64,-0.09,-1.35,0.56,-1.36,0.28,-0.94,-0.63,0.73,-0.75,-0.82,-0.69,-1.56,-0.39,0.80,1.32,0.12
"ex87",1.36,1.56,-0.70,2.28,1.86,2.02,2.07,2.53,3.83,2.86,5.02,3.28,2.59,2.47,0.81,2.14,-1.00,-1.37,-1.58,0.83,0.11,-1.10,0.28,0.01,0.46,-0.63,-0.25,-1.23,-0.20,0.41,0.45,2.19,0.20,-1.91,-0.69
"ex88",-1.50,1.27,1.72,4.16,2.39,3.24,3.17,1.40,3.79,2.66,2.22,0.16,2.57,3.35,1.89,2.48,3.25,1.84,0.95,1.41,0.40,-0.84,0.89,0.33,-0.06,0.98,1.18,-1.98,-0.49,0.24,-0.29,1.21,0.75,1.25,0.47
"ex89",-0.55,0.73,-1.11,-0.24,0.11,0.32,2.46,0.95,1.00,2.17,2.52,4.59,3.03,6.03,4.59,3.50,3.78,1.97,3.11,2.16,-1.09,-0.90,-0.31,0.06,-0.25,0.88,0.77,0.72,0.55,1.31,0.19,-1.11,0.22,0.37,0.90
"ex90",-0.34,-0.37,1.36,0.44,-0.64,0.82,1.52,-1.71,1.25,0.15,2.54,3.53,5.11,6.05,5.61,4.14,3.67,3.03,2.01,1.80,0.07,-0.85,0.30,0.38,0.85,-0.20,-1.27,0.14,-0.64,-1.11,-0.83,-0.81,-0.18,0.33,-0.93
"ex91",-0.48,1.69,1.78,1.52,1.59,2.47,2.28,3.69,4.84,4.86,4.55,4.13,0.50,0.82,0.50,-0.49,-0.03,1.29,0.85,0.15,1.03,-0.55,2.05,-0.04,0.35,-1.25,0.63,-0.45,1.60,-2.09,-0.89,-0.14,1.07,0.20,-0.93
"ex92",-0.72,-0.67,1.27,1.62,1.51,1.75,4.52,5.21,4.87,4.43,2.80,2.05,1.29,2.98,1.07,-0.18,-0.20,-1.19,-0.13,-0.42,0.34,-0.18,1.35,-0.08,1.69,-0.97,-0.73,0.93,2.27,0.94,-1.08,-0.39,1.51,0.43,0.81
"ex93",0.02,1.09,0.32,2.83,0.43,1.03,4.68,2.86,4.85,4.95,4.89,3.43,1.58,0.85,0.61,0.99,0.39,-0.72,0.27,1.62,-0.45,-0.39,-1.25,0.90,0.56,-0.47,-2.01,0.39,-1.13,0.26,0.01,0.84,1.46,-0.27,0.32
"ex94",-0.27,0.90,1.15,0.31,1.13,1.97,3.58,2.04,4.23,2.70,3.32,1.96,1.93,0.81,1.64,2.10,2.19,0.58,0.19,-0.23,-1.53,-0.57,-1.14,-0.75,-2.46,-1.24,1.59,-1.10,-0.58,-0.67,-1.87,-1.16,-0.23,-0.25,-0.42
"ex95",-2.52,1.34,1.26,-1.49,2.84,1.62,4.52,4.07,2.25,0.97,-0.20,2.94,3.83,1.65,3.01,2.93,1.85,1.40,2.39,0.18,0.92,0.23,-0.25,-0.10,0.39,-0.85,-0.85,-1.29,0.13,0.12,0.44,-1.73,0.58,-1.04,-0.12
"ex96",0.34,1.95,1.15,3.06,2.83,3.37,4.73,4.88,5.05,2.26,1.85,1.76,-0.38,0.15,-0.59,2.21,0.04,1.60,0.51,-0.91,1.60,-0.82,0.24,0.78,-1.01,0.11,0.37,-0.03,0.38,1.80,0.84,0.00,0.84,-0.18,0.12
"ex97",-0.10,-0.04,-0.19,-0.77,-2.58,-0.61,3.22,1.85,5.80,3.47,5.71,4.89,6.12,3.97,2.89,0.27,0.52,-0.07,0.88,0.00,-1.58,-2.50,-0.39,-0.57,-1.66,-0.16,-0.01,1.27,0.42,-0.20,1.06,-0.36,-0.23,0.86,0.88
"ex98",0.45,0.33,0.59,0.57,1.87,0.49,3.05,4.14,5.01,3.25,4.69,4.22,3.91,2.02,1.41,1.04,0.71,-1.30,-1.77,-0.10,-0.46,-1.65,-0.23,-1.36,0.27,-0.22,-0.35,1.56,-0.83,1.18,-0.45,2.06,0.62,1.31,1.85
"ex99",1.31,1.22,0.86,0.97,1.47,3.09,5.04,2.71,3.70,1.77,1.90,2.96,1.51,2.29,2.24,2.38,1.79,0.73,0.39,0.88,-1.22,0.44,-1.12,-0.21,1.52,-1.58,0.53,0.06,1.63,0.97,-1.17,0.41,-0.50,0.21,0.24
"ex100",-1.43,1.00,-0.27,-0.30,2.15,0.09,1.25,3.60,2.94,3.48,4.86,5.71,3.68,3.32,1.78,3.53,1.00,0.58,-0.78,-1.51,-2.00,-0.08,-0.45,0.13,-0.14,0.43,0.29,2.07,0.07,0.39,-0.45,1.85,-0.23,1.72,0.88
"ex101",0.31,0.87,1.02,4.10,5.66,5.41,5.03,3.80,5.05,3.45,3.74,-0.26,1.84,1.83,1.84,0.29,-0.55,0.76,0.09,0.99,-0.57,-1.03,0.07,0.39,0.44,0.79,-1.89,-1.41,0.89,0.89,-0.51,1.53,0.61,-0.41,-0.47
"ex102",-1.42,0.14,0.18,5.18,3.39,4.57,5.73,4.69,3.41,2.60,2.91,1.01,1.67,-0.54,-0.84,1.71,-0.39,-0.77,0.76,-1.07,0.09,-0.58,0.27,-0.15,0.02,0.36,-0.60,1.36,0.15,-1.92,-0.77,-1.06,-0.05,-1.94,1.04
"ex103",-1.83,1.53,0.44,2.75,2.39,2.85,2.67,2.95,4.08,2.23,3.06,3.82,1.99,3.59,2.31,4.23,1.62,3.11,-0.92,-0.63,1.95,1.14,0.73,0.87,0.83,-0.20,2.70,0.42,-0.14,-0.88,1.20,0.40,1.09,1.68,2.01
"ex104",-0.03,0.05,2.25,1.30,2.44,1.44,4.12,3.79,4.17,3.93,4.63,3.22,1.52,1.72,0.66,0.99,-0.34,0.04,0.02,0.25,1.22,1.10,1.39,-0.75,-0.60,-0.14,-0.07,-0.75,-0.11,-0.67,-2.09,1.03,1.29,-0.65,-0.57
"ex105",0.15,0.25,0.10,0.66,0.91,-0.06,1.38,2.19,2.41,3.52,6.30,5.83,4.59,4.38,3.97,2.14,-0.37,0.78,0.35,0.83,0.14,-0.03,-0.21,-1.24,1.49,-0.80,-0.53,0.65,0.48,1.65,1.10,-1.18,0.42,0.47,1.55
"ex106",0.17,0.98,-0.15,-0.90,-1.09,0.27,0.90,1.96,-0.59,1.87,1.86,2.82,4.04,6.66,4.76,4.01,5.19,3.03,1.23,1.05,0.05,-0.00,-0.86,1.98,0.58,-0.48,-0.15,1.86,-0.07,-0.22,-0.89,-0.14,0.98,1.15,0.29
"ex107",0.01,0.16,0.12,0.36,-2.09,1.10,1.82,3.05,3.39,3.45,5.72,5.28,5.26,5.11,1.81,1.67,0.18,1.34,1.19,-0.47,-0.67,-0.63,-0.67,0.14,0.35,-0.71,0.46,0.11,1.48,0.36,0.37,1.03,0.56,0.13,0.88
"ex108",1.18,-0.00,-1.26,0.07,0.63,0.54,0.20,0.87,-1.55,1.86,3.36,3.63,3.73,5.15,5.63,4.12,2.96,3.02,1.45,0.77,-1.00,0.73,0.06,0.59,-0.84,-2.19,-0.24,-1.16,1.03,1.02,0.07,0.55,0.02,0.12,0.05
"ex109",1.48,1.73,-0.41,1.03,2.48,0.56,1.10,3.34,1.87,1.70,2.72,1.44,2.87,2.23,2.08,3.37,3.67,3.27,2.39,1.09,-2.35,-0.13,-1.12,-0.49,-0.57,0.77,0.90,-0.25,1.95,0.57,1.23,1.77,-1.31,0.61,-0.50
"ex110",-0.84,1.97,0.81,3.78,1.47,3.12,3.56,1.96,2.17,4.36,0.80,1.51,0.98,1.56,0.65,0.82,1.28,0.08,-0.71,1.12,0.50,1.46,-2.58,0.99,-0.43,-0.91,-0.10,2.23,0.42,-0.04,-1.69,-0.90,-1.38,0.77,0.61
"ex111",0.07,0.22,-0.40,-0.72,-1.23,-1.73,-0.93,-2.15,-1.87,0.98,2.77,1.55,4.03,4.25,7.21,6.07,2.31,1.30,4.00,0.75,-0.31,0.35,1.14,-1.56,1.63,0.49,-0.89,-0.98,1.31,1.50,-0.19,0.09,-0.57,1.21,-1.05
"ex112",-0.36,-0.40,1.85,2.21,3.71,2.58,5.34,4.28,3.27,4.48,3.48,2.11,3.30,0.23,-1.99,-0.60,-1.48,1.38,-1.18,-0.83,-1.69,-0.61,0.36,-0.20,1.09,0.61,-0.16,0.10,0.60,-0.70,0.99,0.20,0.13,-0.62,1.32
"ex113",-0.03,0.86,0.62,1.58,2.64,3.82,3.16,2.15,1.07,1.74,1.56,1.86,2.95,2.66,3.02,3.33,1.41,2.30,1.17,-1.05,-0.30,-0.96,-1.13,-0.28,-0.62,0.73,1.60,0.10,1.85,0.57,-1.36,2.42,2.95,0.24,1.30
"ex114",-1.11,-0.65,2.80,0.23,4.17,3.56,4.20,3.93,4.36,2.15,5.15,3.18,3.53,0.65,2.53,-0.33,0.74,-0.75,0.28,2.10,-1.57,0.05,-0.83,0.39,0.11,-0.84,0.78,0.91,-0.15,-0.26,1.73,-1.14,0.22,-0.55,0.03
"ex115",-0.26,0.81,0.21,-0.55,-2.07,0.75,0.57,1.92,3.98,5.37,3.11,4.19,2.97,2.25,3.05,1.91,1.31,2.08,-0.17,-0.85,-0.28,-0.03,-0.64,-0.92,-0.45,-1.02,0.85,-0.01,-0.12,0.09,0.27,-0.07,-1.30,0.48,1.23
"ex116",-1.18,2.28,0.85,0.15,-1.22,2.15,-1.70,-0.32,1.09,1.59,2.48,2.38,2.65,4.78,4.34,4.26,4.04,3.14,-0.21,0.74,-0.38,-0.90,-1.21,-0.91,-2.83,-1.00,-0.16,-0.51,0.51,1.70,-0.55,1.83,-0.13,-1.45,0.47
"ex117",-1.39,-0.23,1.04,-2.01,-0.27,-1.11,3.52,2.39,2.96,4.13,6.24,4.72,3.59,3.03,3.35,1.70,2.14,-0.17,-0.73,-0.51,2.90,0.05,-0.79,1.58,0.06,0.47,1.24,0.28,0.12,-0.59,-0.01,-0.82,-0.16,0.32,-1.69
"ex118",0.27,0.11,0.92,0.49,-1.18,0.33,2.86,2.73,3.90,3.63,4.88,4.78,2.14,1.71,2.72,1.72,0.18,2.53,1.90,-1.02,-0.78,1.59,-0.51,0.01,0.34,0.13,0.53,-0.57,0.57,-1.84,-0.18,0.03,0.91,-0.95,-1.21
"ex119",0.03,0.11,-0.41,1.88,2.79,4.24,4.84,6.11,3.77,5.04,4.07,2.39,0.16,0.93,0.83,1.76,-2.33,-1.04,0.41,0.81,1.32,-1.69,-0.27,-0.70,-0.12,-0.66,0.40,-0.07,-0.68,0.33,1.29,1.23,0.72,1.24,0.79
"ex120",-0.11,-0.67,1.57,2.85,3.05,4.02,6.16,4.60,4.02,2.37,2.04,0.07,-0.26,1.85,-0.38,-1.21,0.58,-1.01,-1.00,0.28,-0.05,-1.88,-1.16,-0.46,-0.13,-1.33,-1.19,-0.75,1.74,-0.75,0.14,0.99,0.55,1.00,1.43
"ex121",0.39,1.14,0.74,-0.20,1.18,1.15,3.18,4.08,3.81,3.01,5.89,3.94,3.37,1.95,1.50,0.08,-0.26,0.34,0.62,0.84,0.78,-1.40,0.08,-1.87,0.76,-0.72,0.54,-1.85,-0.86,-0.14,0.01,-1.51,0.18,-0.35,1.29
"ex122",1.80,2.46,1.19,2.24,1.11,4.40,6.30,5.33,2.12,5.98,3.26,0.90,2.27,1.46,0.69,-0.35,1.03,-1.60,-0.88,-0.48,-0.33,0.22,-0.96,1.63,2.08,0.34,-0.40,-0.95,2.11,2.34,-0.50,-1.68,-0.44,-0.23,0.10
"ex123",-0.36,0.11,0.42,0.55,3.36,2.90,1.75,2.86,2.32,2.73,3.94,0.12,1.96,2.05,4.15,2.21,1.37,0.67,1.00,1.39,-1.04,-0.67,0.21,-1.65,-1.27,0.88,0.56,2.83,0.18,-1.17,-0.33,-0.03,2.38,0.45,-0.21
"ex124",0.69,0.50,-2.91,-0.08,-1.64,-0.65,-0.03,-0.59,0.55,1.97,2.60,4.57,4.95,4.38,2.43,2.97,2.14,0.95,1.06,0.03,-0.22,-1.56,-0.84,0.36,-1.12,0.10,-1.82,-1.41,-0.48,-2.25,0.41,0.36,1.59,0.42,0.15
"ex125",-0.72,0.80,0.25,0.17,0.89,2.92,2.21,2.98,2.60,4.44,6.32,5.65,4.07,4.28,1.87,0.80,0.70,-0.10,0.48,1.76,-0.68,-1.01,0.18,-0.88,1.05,-0.33,-0.60,-0.86,1.92,2.03,1.02,0.01,0.40,0.24,-0.05
"ex126",0.35,-1.56,1.86,-1.65,-0.15,0.19,1.38,1.14,3.37,2.38,5.82,4.66,3.25,2.90,1.12,1.22,1.56,0.01,-0.56,0.18,-0.53,0.14,2.44,-2.16,-1.54,-1.52,0.52,-0.73,-0.42,0.22,0.81,1.29,0.75,-0.82,0.35
"ex127",0.05,0.27,1.30,-0.72,-0.60,1.16,1.29,1.59,0.54,2.19,3.77,3.77,3.76,4.55,4.48,3.07,2.65,1.12,1.09,0.47,1.47,0.72,-0.02,1.14,-1.04,1.16,0.81,1.63,-0.57,0.33,-0.20,-0.18,0.20,-0.22,-0.77
"ex128",-0.01,-0.58,1.07,0.81,0.38,-0.25,1.83,1.19,0.34,0.60,2.24,2.64,5.24,5.74,6.72,5.10,5.11,3.47,2.61,2.49,0.66,-0.71,-0.78,-0.27,-1.51,0.60,0.22,0.25,-1.02,2.32,1.83,-0.60,1.03,1.05,-0.38
"ex129",1.71,0.55,2.09,2.57,2.27,4.12,2.79,4.39,4.84,3.10,3.27,2.42,0.61,-1.55,0.68,2.14,0.64,-0.02,-1.06,-1.46,0.02,0.72,-0.96,-0.20,0.45,-0.69,-0.41,-0.11,0.12,-0.36,0.25,1.41,-1.78,-0.51,0.35
"ex130",-1.02,-0.45,-0.76,0.95,-0.52,1.73,-0.14,3.20,4.69,3.65,4.66,2.45,5.92,1.67,2.84,2.20,-0.28,0.51,0.46,0.30,-0.28,0.46,-0.46,-0.85,-0.15,0.47,0.20,-0.85,-0.08,1.07,-0.23,0.59,1.27,2.22,-1.32
"ex131",0.44,0.65,-1.36,2.21,-1.69,0.36,1.67,2.28,3.90,1.67,5.75,3.85,3.45,2.32,2.49,1.38,0.93,0.58,1.04,-0.63,0.39,1.80,-1.12,-0.14,0.14,0.57,0.12,-0.97,1.03,-0.01,0.82,-0.38,-0.18,0.56,-0.08
"ex132",-0.66,-0.03,0.58,0.66,2.22,0.48,0.83,1.01,1.69,3.08,2.25,4.58,3.97,3.96,3.81,4.60,2.46,3.13,1.95,2.69,0.40,-0.68,-0.27,-0.49,-0.34,-1.27,-1.99,-0.01,-0.10,0.14,-0.90,-1.16,-0.79,1.60,1.39
"ex133",-1.75,-0.34,-1.50,0.01,0.53,2.01,2.34,2.96,3.91,3.46,6.24,7.17,3.43,4.75,2.71,0.77,-0.25,0.25,0.54,0.06,-0.64,0.37,-0.00,-0.84,-0.70,-0.73,-0.06,-1.06,-0.92,0.81,-0.91,-0.88,-1.01,0.55,-1.50
"ex134",-1.11,0.46,1.12,0.74,0.52,1.78,2.53,2.11,0.84,-0.83,1.82,1.91,2.91,2.69,4.03,1.96,2.53,3.35,2.22,0.51,0.31,-0.02,-1.68,-0.10,0.76,0.11,0.39,0.71,0.40,0.14,-1.65,0.31,0.10,-0.28,-0.15
"ex135",0.20,0.73,-1.94,1.95,-0.12,-0.85,1.42,2.89,3.98,4.28,6.29,3.76,4.51,2.41,3.15,0.86,-1.18,-0.85,0.09,-0.97,-0.46,1.66,1.02,1.97,-0.31,0.88,-0.04,-0.10,-0.46,0.78,0.22,-0.35,0.04,-0.27,-0.59
"ex136",0.52,-0.59,-1.02,0.25,0.67,-0.46,-0.83,0.50,2.46,1.66,2.83,1.45,3.23,4.43,6.06,5.58,4.57,3.41,2.19,1.83,1.35,-0.01,-0.56,0.23,-0.71,-0.45,-0.18,-0.12,0.87,0.92,-0.35,-1.87,1.49,0.49,0.54
"ex137",0.85,1.70,1.49,3.47,1.49,2.50,2.93,4.04,0.78,1.82,3.03,3.80,2.95,3.01,5.17,2.96,2.51,2.49,-0.38,0.46,0.86,-0.65,-1.38,-0.09,0.44,1.45,-1.21,0.13,0.58,-0.89,-0.37,0.37,0.12,-0.71,-0.49
"ex138",-0.55,0.98,1.26,0.59,0.95,2.37,5.22,2.37,3.86,3.99,3.12,3.54,1.36,2.58,0.55,1.26,2.22,-1.05,0.00,-1.37,0.15,-0.63,-0.26,-0.71,0.93,1.39,-0.18,0.21,0.75,-1.00,1.49,-0.91,0.35,-0.59,-1.57
"ex139",-1.23,1.88,2.24,2.91,1.90,5.43,7.52,3.71,3.51,1.96,1.61,1.20,-1.09,2.30,0.30,1.41,1.49,1.62,0.51,0.68,0.07,0.11,-0.44,-1.10,0.75,1.13,1.63,0.29,-0.39,-0.64,-0.74,-1.89,1.49,-0.02,0.29
"ex140",0.22,0.70,-0.09,-0.31,1.06,-0.32,0.57,0.10,-0.48,1.79,2.17,3.84,3.85,3.66,5.69,5.27,4.65,5.05,3.26,1.83,1.19,-1.29,0.85,1.29,2.20,-0.56,0.61,-1.23,-0.32,0.30,1.29,-0.48,2.00,-1.62,-2.07
"ex141",0.40,2.28,0.83,2.15,1.01,1.71,1.32,4.15,3.26,4.82,4.74,1.61,1.16,2.51,1.51,-0.64,1.59,1.74,-0.40,-0.99,-1.89,0.75,0.80,0.31,-1.01,-1.07,0.03,1.63,0.27,-0.89,-0.74,-1.30,1.01,0.10,0.68
"ex142",-0.16,-0.50,1.39,0.90,2.31,2.81,3.39,4.18,0.47,3.63,0.71,0.57,0.53,3.75,4.25,4.61,1.07,2.30,1.84,0.07,-0.34,1.92,1.64,-0.19,-0.17,-0.52,-0.63,-0.54,-0.55,1.06,0.32,-0.13,-0.79,0.61,-0.97
"ex143",-0.77,0.79,3.81,2.72,3.57,5.66,6.26,5.51,4.20,2.75,0.38,1.62,-1.24,-0.35,0.11,-1.18,0.30,0.85,-1.03,-2.31,-0.11,-0.61,0.31,-1.47,2.20,0.90,-1.15,-0.33,-0.94,-0.16,0.02,-0.26,1.03,-0.60,-0.57
"ex144",0.76,-0.60,0.94,-1.13,1.31,0.57,2.01,1.61,0.69,3.11,6.08,5.78,2.39,3.65,1.96,2.24,1.82,0.71,1.20,-0.23,0.08,1.29,-0.90,-0.32,-3.73,-1.37,0.55,-1.35,1.41,0.01,0.10,0.69,-0.18,-0.75,2.92
"ex145",-1.30,0.11,-0.51,-0.74,-0.77,-0.93,0.42,2.14,1.21,2.90,4.25,3.62,4.34,3.83,4.41,3.56,1.48,0.59,0.33,1.76,-0.20,-1.32,0.92,0.12,2.44,1.36,0.80,0.16,1.22,-1.04,-0.67,0.92,0.71,-0.05,0.31
"ex146",-0.07,-0.04,1.46,2.55,2.38,3.05,1.48,3.60,0.80,2.68,1.44,0.53,1.90,0.01,1.07,2.59,1.19,1.38,1.34,3.26,0.87,-0.47,0.32,-0.26,0.09,-0.24,-0.38,0.00,-0.62,0.15,-1.72,1.56,-0.28,-1.74,0.93
"ex147",1.73,-1.01,0.21,0.92,-0.23,1.04,2.22,4.27,3.98,4.96,6.55,4.06,3.16,2.57,2.80,2.49,0.12,-0.15,-0.34,-0.57,1.23,-0.26,-1.29,-0.27,-0.38,0.79,-1.64,-0.11,0.33,0.04,0.10,1.95,0.09,-0.81,1.51
"ex148",-0.78,0.51,0.96,3.51,1.91,5.31,3.23,4.02,3.25,2.42,3.19,0.47,0.92,0.29,1.46,0.40,0.39,-0.66,-0.73,0.57,-0.22,-0.10,-1.88,0.30,0.74,-1.72,2.07,1.93,0.87,0.66,-0.35,0.28,-0.13,0.30,0.33
"ex149",0.61,1.52,0.39,1.49,2.17,1.53,3.02,0.53,2.92,1.16,1.60,2.93,2.37,2.63,5.97,4.92,2.40,2.37,1.17,1.65,-1.59,0.95,0.63,0.24,0.16,-0.03,1.24,0.25,-0.87,-1.06,-0.76,0.15,-1.17,-1.04,2.42
"ex150",-0.27,1.11,0.95,0.70,3.04,5.05,4.42,4.26,2.27,2.11,1.07,1.19,2.37,0.38,0.75,2.00,1.13,2.23,0.09,1.45,-0.75,0.59,0.48,2.44,-0.92,-0.99,0.64,0.72,-0.34,1.26,-0.15,0.38,-0.30,0.61,1.61
"ex151",-0.07,1.71,2.56,3.80,2.50,5.14,5.54,3.08,4.93,2.90,2.21,1.69,1.85,-0.14,-0.02,0.19,3.29,0.92,-0.22,0.68,-0.82,1.22,-0.03,-0.91,-0.49,-1.07,0.25,0.12,-1.04,-0.15,0.82,0.65,-0.37,2.95,-1.53
"ex152",1.65,1.16,0.29,0.16,-0.81,2.11,3.61,2.13,3.35,3.27,6.15,4.68,2.37,3.06,0.32,2.55,-1.10,-1.19,1.27,-1.36,0.44,-1.59,-0.61,0.53,1.16,0.52,-2.33,-0.48,2.29,-0.44,0.82,0.24,-0.52,1.04,0.65
"ex153",-0.69,0.86,2.83,3.32,5.58,4.18,5.76,4.16,3.35,3.05,2.96,2.50,1.91,0.58,1.67,1.18,0.71,0.11,-1.00,-1.47,0.27,-0.49,-0.18,0.19,-0.38,-0.43,0.33,-0.75,0.65,1.89,-0.59,0.08,0.96,1.03,0.76
"ex154",-0.56,-0.59,0.63,1.21,0.65,0.16,3.67,2.43,3.32,3.41,3.73,4.40,5.76,5.11,2.63,2.62,-0.40,2.04,0.06,1.00,0.18,-0.46,0.64,0.04,-0.04,0.58,-0.52,0.33,0.95,-0.78,-0.22,-1.99,-0.00,0.07,-0.58
"ex155",2.56,0.10,-0.52,-0.50,-0.35,-0.05,0.72,1.71,3.23,3.25,2.05,2.24,3.62,5.26,4.02,2.92,1.57,1.38,1.72,0.19,-0.33,-0.15,1.06,2.25,-0.29,-0.09,-0.02,-0.50,0.68,1.07,-1.40,-1.04,0.73,0.14,-2.59
"ex156",-1.21,0.77,0.47,-0.60,0.75,0.44,3.90,4.38,4.95,6.10,6.20,3.79,2.81,2.45,3.40,-0.03,1.14,1.36,0.62,1.17,-1.64,0.48,-0.89,-0.95,2.75,0.87,-1.27,0.36,-2.34,1.83,0.28,1.31,-0.41,0.73,-2.33
"ex157",-0.19,2.55,-0.01,0.75,2.53,2.92,2.99,4.82,3.96,4.23,5.42,5.11,1.57,3.71,0.50,2.37,-0.74,-0.25,0.71,0.65,-0.42,0.24,-1.09,0.76,1.47,-1.07,0.34,0.22,-0.34,-1.09,1.26,-0.22,1.24,-1.24,0.63
"ex158",-0.42,-0.66,-0.06,0.24,-0.91,-0.52,1.23,-0.23,1.46,1.17,3.17,3.03,5.15,4.90,3.12,4.75,3.61,4.56,0.57,0.28,-0.30,1.88,0.63,0.66,0.45,-0.15,0.74,0.24,0.01,0.23,1.33,2.46,-1.08,-0.27,-0.19
"ex159",1.09,0.27,-1.03,-0.76,-0.24,0.10,0.86,1.32,0.49,0.71,3.46,4.54,2.22,5.61,4.22,3.66,4.13,3.70,1.45,0.56,1.58,-0.10,0.29,0.95,-0.86,0.12,-0.54,-0.37,-1.57,-1.07,0.13,-1.23,-0.47,-2.24,1.58
"ex160",1.52,0.02,2.36,2.75,2.79,3.77,6.45,4.62,5.17,1.88,1.18,1.53,0.40,0.97,-0.44,-1.03,-0.25,-1.09,-0.95,-0.70,1.21,-1.57,-0.25,-1.84,1.28,-0.38,-0.24,-0.17,-2.31,-1.39,1.41,-0.86,-2.05,-0.16,1.65
"ex161",-1.05,0.35,1.43,1.78,3.98,5.70,5.82,6.79,3.33,2.74,2.49,1.43,1.46,0.31,-2.02,0.43,-1.18,-0.47,-0.17,1.64,-1.25,-0.13,-0.13,1.58,1.81,0.91,-0.26,0.79,-0.08,1.16,1.33,-0.36,-0.23,0.43,-0.07
"ex162",0.93,2.03,3.91,2.59,3.45,1.98,4.17,3.52,1.76,2.13,1.32,1.05,0.13,1.28,1.62,0.23,1.24,-0.74,0.58,-0.21,0.81,-0.69,1.89,1.43,-1.50,1.40,0.59,-1.06,0.94,0.83,-0.80,1.65,0.85,-0.00,0.90
"ex163",-0.01,0.38,0.52,2.53,1.73,3.20,1.78,3.79,4.13,4.75,3.88,3.46,3.38,3.44,-0.72,-0.28,-1.17,0.15,1.18,1.06,-1.37,-1.39,0.05,-0.87,-0.10,-0.22,-0.21,-0.56,-0.59,-0.29,0.55,-2.36,0.40,0.59,1.29
"ex164",0.65,1.19,1.23,2.72,3.72,3.73,2.91,4.24,3.03,4.64,1.88,2.82,1.09,1.78,-1.03,-0.07,0.41,0.39,0.23,-0.36,-1.23,0.29,1.17,0.74,-0.13,0.07,1.40,-0.99,0.60,0.92,-0.89,0.25,1.17,-1.09,1.45
"ex165",-0.29,0.24,0.55,-0.36,1.80,1.52,3.99,2.73,5.08,6.37,5.53,4.24,4.25,3.76,2.57,0.38,-0.37,-0.78,-1.34,0.64,-0.34,-0.35,-0.56,-0.52,-0.77,-0.02,-0.68,1.28,-1.51,-1.08,-0.05,2.34,0.16,-0.04,-0.17
"ex166",-1.19,1.24,1.36,1.03,2.07,4.46,4.40,5.73,3.89,4.70,3.39,2.38,0.91,1.14,0.65,-1.07,0.30,-1.27,0.40,-0.19,0.05,-0.16,-1.39,0.73,-1.47,1.72,0.17,0.58,0.95,-0.39,1.71,0.70,-1.42,-0.73,0.64
"ex167",-0.20,2.67,-1.74,0.45,1.63,0.44,0.79,1.16,2.27,6.15,4.62,5.88,1.84,4.77,2.89,4.50,2.91,-0.27,0.89,1.24,0.11,-1.03,0.45,-1.84,2.11,-0.55,-1.26,0.41,-0.80,-0.26,-0.28,0.54,0.04,-0.65,0.67
"ex168",1.63,1.96,-0.45,1.70,1.90,1.45,2.16,4.85,4.09,4.27,2.40,2.80,2.20,2.42,-1.21,1.55,0.43,0.08,-0.81,-0.28,-0.70,0.02,1.50,-0.45,0.24,0.67,-0.06,-0.69,-0.04,-1.64,-0.80,0.54,0.13,-0.33,-1.08
"ex169",-0.80,-1.50,-0.39,0.85,0.69,0.06,1.20,0.47,3.13,3.40,6.38,4.20,2.85,3.84,2.42,0.47,-0.18,0.36,0.61,-0.88,-0.96,0.11,1.47,0.11,0.13,0.01,-0.35,2.00,0.69,0.24,-1.13,-0.27,0.38,0.66,1.33
"ex170",0.47,0.67,0.75,2.74,1.95,2.58,3.46,0.88,0.65,2.31,2.31,3.63,2.32,3.59,2.15,1.91,2.89,0.90,1.41,-0.16,1.26,0.15,-1.61,-0.11,-0.88,0.20,0.17,0.61,-1.10,-0.10,-1.21,0.65,0.38,-0.81,-0.47
"ex171",-0.68,3.22,1.56,1.86,2.87,2.02,3.95,4.12,2.19,1.08,1.01,2.56,2.88,3.55,1.80,3.75,2.81,0.87,1.06,-0.34,0.41,-0.71,0.04,0.76,0.44,0.35,-0.11,-2.44,-0.63,0.54,0.78,0.04,0.62,-0.23,-0.84
"ex172",-1.48,1.37,1.73,3.33,4.44,3.85,5.89,5.37,5.46,2.32,2.05,1.50,-0.38,1.46,-1.29,-0.59,0.12,-1.43,-1.32,-0.11,-0.25,0.28,-0.79,-1.16,-0.26,0.37,0.70,-1.35,-0.82,-0.39,-1.07,0.21,0.75,1.06,0.36
"ex173",0.76,0.60,2.20,1.03,6.21,3.78,4.97,5.41,4.49,3.18,3.51,0.85,1.41,2.73,0.60,-0.10,0.44,-0.89,-0.15,-1.21,-1.03,1.39,2.12,0.94,1.30,-0.21,0.68,-1.87,0.61,0.32,0.55,-1.15,-1.77,1.02,-1.82
"ex174",-1.47,-0.30,0.07,1.25,0.14,1.71,1.88,2.34,3.78,3.88,5.96,5.23,4.37,4.96,3.51,2.54,-0.30,1.48,0.09,-0.18,0.95,-0.40,-0.81,0.36,-1.98,-1.90,0.94,0.15,1.79,-1.38,-3.40,0.55,-0.56,-0.67,0.06
"ex175",0.47,1.04,-0.40,0.14,1.87,1.44,1.76,3.85,1.41,2.09,2.56,2.92,2.38,0.70,2.68,2.64,2.08,0.53,2.91,-1.15,-0.32,0.32,0.97,-0.48,0.03,-1.15,-0.22,0.94,-0.20,0.13,-0.22,-0.71,-0.75,-0.92,0.88
"ex176",0.55,-1.05,0.80,-0.84,-0.34,1.48,0.92,1.04,2.23,3.35,5.18,3.67,4.73,3.53,3.22,2.29,1.51,1.95,-0.31,0.75,-0.54,0.02,0.59,-1.73,2.92,-1.45,-0.55,-1.60,-0.24,-2.05,-0.08,0.73,-0.35,0.08,-0.47
"ex177",-0.41,0.35,2.03,1.45,0.96,4.07,4.70,3.98,3.49,3.36,0.16,1.60,-0.09,2.33,0.79,0.66,0.68,0.57,-0.12,0.62,0.12,-1.12,-0.23,0.76,-0.46,-2.24,-0.58,-1.71,0.77,-0.40,-0.20,-0.80,-0.82,-0.23,0.80
"ex178",1.58,-0.38,0.56,-0.07,0.23,0.67,1.17,1.62,0.51,0.23,3.92,2.04,3.82,5.81,3.55,4.98,2.75,2.84,3.88,0.68,0.94,-0.69,-0.77,-0.14,-0.64,0.73,-0.55,0.14,-1.14,1.14,-0.58,1.44,1.12,-0.23,-0.93
"ex179",0.05,-0.05,0.23,-1.53,-0.45,3.17,1.82,1.39,1.25,0.88,0.74,2.98,2.17,3.91,5.63,4.61,3.19,2.07,2.69,0.39,-0.77,-0.48,0.71,-2.21,0.27,0.37,0.69,0.21,-0.60,1.34,-1.01,-1.13,-2.00,0.85,2.01
"ex180",0.16,0.16,0.33,0.19,1.53,1.33,2.08,2.59,1.58,4.85,5.34,4.76,4.40,4.59,2.74,2.73,1.51,0.09,-0.99,-1.75,-0.73,0.03,0.85,-0.15,0.34,-1.26,-0.13,-0.05,-0.86,-1.38,-2.08,-0.65,-0.70,0.13,1.39
"ex181",-0.69,1.84,0.55,1.73,3.62,5.35,3.51,2.49,2.44,5.06,2.70,0.38,0.47,2.30,-1.82,-0.61,0.55,-2.51,-0.30,0.42,-0.91,0.12,0.04,-0.02,1.61,-0.54,0.40,1.85,-0.56,0.18,0.89,-1.03,0.59,-0.63,2.54
"ex182",-1.73,1.91,1.54,2.86,1.90,2.12,4.02,1.22,1.35,3.30,2.27,2.52,1.70,1.78,2.64,1.29,1.58,1.31,2.11,2.49,2.29,-0.19,-1.30,-0.12,0.49,-0.06,0.68,-1.71,-1.87,-0.81,1.77,-1.16,-0.36,1.67,1.44
"ex183",0.43,1.05,-0.55,0.47,0.21,-0.67,0.89,-0.36,3.08,2.65,5.67,2.20,4.40,2.81,5.65,2.73,4.66,3.52,2.03,1.74,-0.48,-1.75,0.73,0.52,-1.13,-0.50,-1.22,0.57,2.86,-0.11,-0.74,1.39,-0.74,0.58,1.63
"ex184",-0.18,-0.02,0.42,0.41,-1.18,0.79,-0.13,-0.34,-0.97,2.87,3.56,3.28,4.40,4.50,6.28,4.77,1.87,4.37,2.04,1.21,-1.24,0.39,-1.12,-1.09,0.34,-1.94,-0.17,0.42,-0.59,-0.58,1.99,0.07,-0.20,-0.53,-2.37
"ex185",1.54,-0.83,1.21,0.25,1.11,1.22,1.24,1.29,3.12,4.56,4.45,4.12,4.49,3.44,0.98,-1.06,-0.09,-1.28,1.99,-1.38,-0.04,-0.68,1.57,0.09,-2.92,-0.05,-0.19,0.60,-0.73,1.06,0.74,1.31,-0.71,-0.07,-0.48
"ex186",-0.82,0.55,1.71,-0.32,-0.51,-0.16,-0.24,-0.45,2.48,3.00,1.58,2.36,5.03,4.59,3.69,3.86,3.67,1.45,1.69,0.57,-2.21,0.75,-0.84,0.60,-0.91,-1.65,1.00,-0.51,0.45,-0.88,-0.28,0.04,0.90,-0.35,-0.59
"ex187",-1.27,1.28,1.32,0.43,2.08,2.24,3.70,2.60,1.73,3.01,2.92,1.47,2.79,2.46,1.55,3.37,1.95,3.61,0.93,0.77,-0.29,-0.73,0.45,0.45,-0.36,-0.15,1.64,0.34,-0.34,0.26,-0.87,0.86,-1.56,0.25,0.88
"ex188",-0.88,0.47,-0.40,-1.03,-1.66,0.51,1.75,1.53,1.67,0.17,3.42,4.42,3.16,5.08,3.84,5.85,3.36,2.53,0.28,0.72,-0.21,0.45,0.66,-0.18,-0.19,-0.39,-0.50,1.18,1.60,-1.52,1.09,0.05,-2.73,-0.35,-2.06
"ex189",1.64,0.79,-0.34,-1.85,0.05,1.68,-0.91,0.00,0.45,2.43,0.94,4.52,4.24,5.37,6.57,3.52,3.72,3.90,4.36,1.45,-0.10,-1.78,0.47,1.60,0.89,-2.35,1.95,-0.83,-0.90,-0.12,0.07,1.31,0.04,-0.51,-0.64
"ex190",-0.33,1.01,2.96,1.03,2.35,2.92,5.88,3.26,2.06,3.11,0.85,1.79,0.61,4.00,2.02,0.70,0.40,0.72,0.96,0.05,-0.88,1.27,-0.74,0.80,0.57,0.28,-1.74,0.26,0.39,0.34,-0.65,0.74,-0.29,-0.40,0.19
"ex191",1.33,-0.64,-0.12,0.18,-0.20,3.14,1.43,2.00,4.45,4.43,7.01,4.35,3.73,3.39,1.69,-0.86,-0.43,-0.43,-0.18,-0.19,0.64,-1.55,0.36,0.54,0.44,0.23,0.22,0.53,0.67,-0.10,1.62,-0.11,0.87,-0.47,-0.02
"ex192",0.94,-0.51,3.43,2.89,2.93,4.12,6.34,6.31,3.71,3.52,2.12,3.62,0.49,0.30,0.22,1.75,2.06,0.74,1.26,0.14,-0.70,-1.72,-2.18,-1.46,0.08,0.83,1.97,-0.32,-1.33,0.29,0.09,0.36,-0.88,0.14,-0.78
"ex193",1.34,-0.80,1.10,0.39,-0.96,0.13,-0.14,0.63,-0.63,4.20,1.76,3.15,2.55,4.80,5.18,4.64,3.45,1.48,1.65,0.75,0.60,-0.17,-1.51,-0.77,0.85,0.09,0.12,-0.64,-0.52,-0.39,0.40,-1.63,-0.26,-0.66,-0.88
"ex194",0.16,0.83,1.72,0.58,2.37,1.40,3.20,4.44,2.74,3.71,4.89,3.98,1.81,1.17,2.13,1.48,-0.54,0.05,-1.02,-0.58,-0.26,-1.17,-0.74,0.35,-0.37,-0.01,0.44,-1.01,-1.02,-1.42,0.27,-1.81,-0.46,0.91,-2.24
"ex195",-0.63,0.76,1.30,2.61,4.72,3.93,4.68,5.30,4.93,3.32,2.19,1.67,1.03,0.19,0.64,1.42,0.41,-0.71,1.03,-1.34,-0.58,-0.26,-0.94,-1.87,0.06,0.07,-0.92,-0.62,-1.25,1.17,0.66,-2.62,1.13,2.32,0.75
"ex196",-0.22,2.25,1.88,-0.01,3.16,4.08,4.06,4.56,2.24,1.73,1.86,1.05,1.59,0.69,3.15,0.95,1.99,1.03,1.65,0.53,-0.63,1.59,0.40,-0.53,0.15,-0.47,-0.94,-0.39,-0.83,0.94,-0.79,0.72,-0.60,1.35,0.56
"ex197",0.10,0.59,2.37,2.49,3.27,3.10,6.02,4.79,3.50,3.01,4.21,1.89,-0.11,-0.71,0.24,-0.71,0.17,-0.10,1.05,-2.20,-0.04,0.46,0.75,-0.43,-0.06,1.57,-0.77,0.60,-0.40,-0.71,-1.41,0.57,0.93,-1.79,-0.55
"ex198",1.29,-0.73,0.73,1.78,2.05,1.98,-1.07,1.44,1.20,0.36,2.02,3.90,3.71,2.83,5.60,3.44,3.70,1.22,0.54,0.77,-1.21,-0.03,0.23,0.61,-0.63,-0.64,1.27,-0.99,1.69,0.76,0.89,1.41,1.79,1.48,0.30
"ex199",-0.16,1.47,-0.90,-0.36,-1.28,-0.48,0.84,1.28,2.79,1.41,3.91,4.65,3.41,5.03,3.45,4.59,2.74,3.26,2.12,0.33,0.03,1.03,-1.15,-0.37,-0.04,-0.72,0.60,0.36,2.30,-0.22,-0.94,-1.58,0.63,1.45,-0.62
"ex200",-1.18,1.20,1.81,3.18,3.87,5.18,6.30,3.51,2.55,3.24,2.39,0.22,-0.03,0.59,0.87,-0.04,-1.71,-0.10,-0.64,0.66,0.69,-0.58,0.61,0.86,-0.77,-1.41,-0.02,2.25,-0.38,-0.48,-0.14,-0.69,0.36,0.47,-0.10
"ex201",0.41,-0.14,-1.35,0.18,-0.45,2.48,3.49,3.95,4.94,5.44,6.90,5.15,2.68,5.37,4.28,0.26,-1.30,-2.05,1.50,-0.62,0.07,0.60,0.94,0.60,-0.15,-0.48,1.41,-0.28,0.43,0.12,-1.55,0.64,0.97,0.20,0.27
"ex202",0.26,0.73,0.13,-0.31,0.72,-0.07,-0.50,0.33,-0.25,0.09,-0.57,2.33,4.16,4.51,5.67,2.26,1.94,1.45,1.58,0.48,-0.23,0.71,-1.75,-2.72,0.50,0.46,0.61,0.78,-0.17,0.52,0.26,0.02,0.64,-1.78,-0.61
"ex203",0.81,0.14,0.79,-0.16,0.75,2.52,2.48,2.97,4.72,4.39,3.15,4.55,0.06,4.21,0.94,-0.87,1.36,-0.98,-0.30,-1.38,0.07,0.60,0.48,1.05,-0.87,1.37,-1.41,-1.27,0.12,-0.40,-0.95,0.48,2.17,0.44,-0.14
"ex204",-0.82,0.94,-0.25,0.11,1.85,3.08,1.93,2.65,2.24,0.84,3.02,3.77,2.23,2.38,3.47,3.17,2.59,1.36,2.19,1.47,0.21,0.45,0.35,0.71,-0.49,-0.10,-0.34,-0.16,-0.79,-0.23,-1.15,1.23,0.73,-0.43,-0.65
"ex205",-0.93,0.60,1.27,1.57,0.18,3.35,-0.07,2.66,2.37,2.61,2.95,0.46,2.34,1.89,4.70,4.34,4.36,4.19,-0.47,2.07,-0.68,-0.67,0.23,-0.51,-0.26,1.89,-0.23,-1.98,-0.80,-0.23,-0.82,-0.20,0.14,-1.91,-1.92
"ex206",1.95,1.72,1.03,-0.61,1.17,0.73,3.17,3.61,4.39,3.82,5.67,4.67,0.40,1.27,3.32,0.29,0.33,1.20,1.92,-0.38,1.63,-0.19,0.41,1.08,2.17,0.64,-2.01,-1.04,0.15,0.10,-1.69,-0.40,-0.92,0.58,0.49
"ex207",0.78,1.21,1.25,1.91,3.65,2.54,2.85,3.60,2.75,0.53,2.34,2.90,1.13,3.16,4.07,-0.27,0.32,1.84,0.43,1.76,-2.18,-1.51,-0.28,-0.96,-0.24,2.44,1.43,1.29,0.07,0.42,-2.14,-0.17,-0.54,2.10,0.26
"ex208",-1.94,-0.98,0.12,-0.67,-0.84,0.93,0.98,0.91,-0.25,2.31,0.63,4.28,5.93,3.59,5.65,3.18,2.51,2.08,0.85,1.11,-0.81,-0.09,-1.12,0.83,0.62,-1.49,-1.52,0.88,-1.61,-0.97,-0.02,2.24,-0.72,0.14,0.67
"ex209",-1.33,-0.12,-0.02,1.84,-1.12,2.65,1.83,2.60,3.72,5.97,5.56,4.30,2.72,0.67,3.68,2.00,-0.16,1.26,0.02,0.58,0.34,0.40,0.74,-0.13,-1.10,-0.15,-0.51,-0.37,0.05,0.47,-0.08,0.12,-0.81,0.69,-0.59
"ex210",-0.21,1.12,-0.19,1.12,0.41,-0.19,2.91,3.54,4.09,5.45,5.67,5.57,4.91,1.36,1.48,0.76,-0.72,0.34,-0.97,0.62,2.25,0.44,1.10,-0.97,0.22,0.40,-0.07,-0.35,1.23,0.56,0.13,-0.12,1.29,0.75,-0.16
"ex211",1.77,-1.07,0.74,1.52,2.15,3.25,2.45,2.53,2.13,2.40,2.66,2.58,1.65,1.03,3.76,3.13,3.27,2.41,0.97,0.74,-0.67,0.32,-1.16,-0.22,1.70,-1.24,0.82,-0.66,-0.65,-1.33,-0.44,-0.50,-0.17,0.98,1.26
"ex212",-1.88,1.29,0.83,-1.43,0.04,0.96,1.27,1.85,1.71,3.31,5.85,4.15,3.33,4.78,2.25,2.72,0.07,-1.93,1.93,2.02,0.49,0.56,-0.52,-2.03,-0.09,0.58,0.55,-0.86,0.61,-0.39,-1.10,-0.55,0.54,-0.65,-0.20
"ex213",0.02,0.91,2.33,0.01,3.93,1.53,1.73,0.35,1.08,1.26,1.90,3.65,1.47,2.36,6.06,5.34,1.53,0.74,0.03,-0.18,-0.66,-1.64,-0.19,-2.88,0.11,-0.05,-1.59,-1.33,0.58,1.54,-1.08,-0.37,-1.22,-0.39,1.45
"ex214",-0.17,0.30,0.41,-0.78,-0.01,0.96,0.82,3.22,3.03,3.89,6.21,4.24,4.60,1.63,2.25,1.01,-1.77,-2.35,0.10,0.95,-0.31,-0.19,-0.21,-0.64,-1.83,1.09,0.30,-0.01,0.22,-0.40,1.14,-0.47,0.31,-0.79,1.44
"ex215",1.91,0.75,-0.45,-1.17,-0.03,2.27,2.34,0.55,2.22,6.44,6.09,3.66,3.65,3.94,3.63,1.64,2.08,0.61,-0.79,0.82,-1.20,1.15,-1.24,-0.95,0.77,-1.17,-1.52,-0.38,0.44,-1.54,-1.40,0.81,-0.63,-0.18,-0.47
"ex216",0.71,0.04,1.35,1.49,1.44,2.96,5.41,1.16,2.94,0.50,2.90,2.68,2.55,3.38,2.29,2.39,1.54,-0.06,0.18,0.82,0.43,-0.87,0.21,-2.58,0.24,-0.11,-0.63,0.37,0.51,-0.12,1.99,-2.10,1.58,0.16,0.25
"ex217",0.28,-0.19,0.65,-0.58,-0.70,1.65,2.97,2.99,3.79,4.48,6.10,2.86,4.01,3.15,3.81,0.56,-1.76,1.07,-1.23,-0.92,-0.56,-0.62,1.59,-0.57,0.26,-1.63,1.80,1.27,0.10,-0.07,1.08,0.16,0.44,0.28,-0.27
"ex218",0.26,1.21,3.02,2.15,3.84,6.42,4.87,4.23,3.03,2.47,0.97,0.53,0.26,-0.20,-0.03,0.78,-0.55,1.15,-0.62,1.15,0.17,-0.47,-0.17,1.71,1.66,-2.56,1.01,0.20,-0.27,-0.57,-1.20,1.26,-1.03,-0.58,-0.25
"ex219",0.13,-0.22,-1.99,2.27,-2.06,-0.68,2.19,2.54,4.16,4.80,4.69,4.21,4.71,4.03,3.25,0.29,-1.80,-0.15,0.74,2.13,-1.45,-2.38,1.35,-0.04,1.30,-1.22,1.71,-0.41,-0.55,0.60,0.20,0.96,0.65,-0.93,0.55
"ex220",1.06,1.11,-1.30,0.68,-0.96,1.45,-1.86,-0.21,-1.95,-0.07,1.21,1.74,4.39,5.51,5.01,3.02,2.99,2.51,1.56,0.65,-0.29,-0.24,0.68,0.81,-0.54,0.09,0.09,-0.93,2.74,0.47,-0.55,1.09,0.85,0.90,-0.09
"ex221",0.49,0.07,0.37,0.59,-0.62,1.97,2.36,2.99,3.52,4.30,7.56,4.31,2.81,3.22,0.65,-0.15,-0.67,-1.36,-0.97,-0.86,-0.00,1.08,-1.47,-1.44,-0.29,-0.39,-0.95,-0.21,-0.52,-0.53,0.28,-0.38,-0.27,0.16,1.55
"ex222",0.29,0.54,0.37,3.60,2.50,3.45,4.83,1.30,1.82,1.23,2.30,3.76,1.66,2.01,3.63,3.96,-0.63,-0.22,0.61,-0.93,0.23,0.57,-0.38,0.06,-1.52,1.67,-0.30,0.32,0.42,-1.29,0.58,0.28,-0.28,-0.19,1.84
"ex223",0.09,0.77,-0.69,2.06,-0.15,0.59,1.85,2.95,3.30,3.46,5.78,5.13,3.27,2.21,3.79,1.59,0.48,-0.63,0.44,2.03,-0.88,1.53,-0.14,1.17,-0.13,-0.31,0.09,-0.38,-0.72,1.73,-0.06,1.01,1.42,0.56,0.67
"ex224",-1.73,0.41,1.42,2.61,4.62,4.99,8.53,5.32,1.50,0.25,3.79,1.20,0.75,1.18,-0.02,1.06,-0.90,-0.70,-0.05,2.00,0.48,0.17,1.52,1.22,0.98,-0.17,-0.96,0.80,-0.60,1.82,0.50,2.08,-0.73,0.20,-1.93
"ex225",-1.18,0.30,-0.90,0.18,1.22,-0.61,0.10,-0.03,1.39,2.59,3.78,4.78,4.55,3.98,6.65,4.44,2.28,1.04,2.69,1.70,-0.69,-1.31,1.22,0.33,-1.57,0.75,0.42,-0.66,1.38,-1.05,0.58,-0.33,1.17,-0.11,0.42
"ex226",-0.69,2.58,0.12,-1.01,0.14,0.30,2.93,1.07,3.20,3.61,4.39,4.24,2.64,4.10,5.48,3.88,3.35,0.12,-0.09,1.13,-1.38,0.49,2.00,0.55,-0.89,0.81,-0.52,0.26,-0.46,-1.45,-0.08,-0.38,-0.43,-0.47,0.14
"ex227",1.02,2.02,1.86,3.73,3.60,3.16,6.68,4.90,4.65,3.09,3.13,1.40,-0.61,2.22,1.03,0.44,0.12,0.30,-0.41,-0.76,-1.19,-0.55,1.84,-0.42,0.33,-0.17,0.55,-0.06,-0.80,-0.39,0.75,0.56,1.60,1.21,1.73
"ex228",-1.05,0.10,-1.20,0.80,-1.24,0.60,2.83,1.17,2.33,5.15,5.23,4.34,3.42,1.58,2.03,2.69,-0.02,1.03,-0.50,-1.81,2.35,0.27,0.25,-0.59,0.20,1.04,0.42,-0.16,0.72,1.61,-1.09,-2.73,-0.60,0.35,-1.03
"ex229",-0.32,-0.39,-0.17,0.75,-0.08,2.80,-0.79,1.20,1.68,2.09,5.13,4.88,3.64,2.80,5.21,3.74,4.16,2.78,2.50,1.33,-0.05,1.80,0.94,0.43,1.20,1.70,-0.62,2.35,1.25,-0.09,1.05,0.65,0.89,0.66,0.04
"ex230",-0.35,-0.04,2.01,2.57,2.77,4.77,1.21,3.11,4.74,2.29,2.60,1.14,2.07,1.97,1.42,3.12,1.01,0.44,-0.62,1.89,-0.61,-1.94,-0.14,0.60,-0.73,0.94,0.04,-0.09,1.33,-0.79,-0.00,-0.03,-1.46,1.06,1.69
"ex231",0.01,2.35,1.30,2.34,4.09,4.83,5.82,5.05,4.13,1.85,2.82,0.21,0.27,0.61,0.51,0.16,-1.28,-1.07,-0.49,-0.48,-1.24,-0.21,-1.44,-0.48,0.68,-2.17,-0.74,0.75,0.07,-0.84,0.88,0.83,-1.64,0.75,0.56
"ex232",-1.37,1.43,1.17,1.45,4.63,4.86,4.39,6.05,3.95,5.43,1.22,1.72,0.47,-0.66,0.54,1.59,0.64,0.98,0.29,-0.72,-0.45,-0.90,0.13,-0.24,2.23,0.52,-0.37,-1.64,-0.55,2.32,1.50,-1.97,-1.50,2.37,0.10
"ex233",-1.98,-0.25,1.14,0.28,-1.54,-0.16,0.97,2.78,4.73,2.93,4.91,5.83,3.86,4.53,4.31,1.39,0.39,-0.57,-0.84,-0.54,0.68,-0.93,0.39,-0.30,-0.77,0.64,0.42,-0.96,-0.43,-0.19,-1.92,-1.61,2.13,-1.22,-0.57
"ex234",1.54,0.52,1.10,1.78,0.67,3.25,4.68,2.38,3.82,2.26,2.44,1.70,2.53,1.84,-0.76,0.65,1.10,-0.48,1.63,1.04,1.92,-0.69,-0.73,-0.65,-0.84,0.21,0.81,-1.19,0.11,-0.69,-0.58,1.03,0.80,-1.07,0.80
"ex235",0.30,-0.10,1.34,-0.08,2.62,1.70,3.07,3.01,5.36,5.65,4.11,4.09,3.48,3.28,0.45,1.37,-1.23,2.72,-1.43,0.63,-2.55,-0.30,0.56,0.65,-0.76,-1.43,0.50,-0.60,-1.41,0.13,-0.60,1.36,0.17,0.41,-0.78
"ex236",1.13,-0.95,-0.67,1.00,-1.40,0.45,1.38,-0.84,2.73,2.40,3.12,4.54,1.77,4.28,3.10,3.80,2.03,4.79,2.72,-0.36,-0.50,0.43,1.62,-0.88,0.26,-1.21,-0.19,0.07,-0.59,-0.92,0.59,0.28,0.99,1.07,0.66
"ex237",0.59,1.72,-0.15,-1.11,-0.04,0.24,1.62,-0.21,1.05,1.24,3.15,4.54,4.67,4.48,6.56,5.07,3.70,3.09,-1.21,2.47,-0.85,-1.02,-0.04,-0.18,0.03,-0.90,-0.35,-0.52,1.50,1.36,0.25,-0.35,-0.62,-0.11,0.27
"ex238",-1.97,-0.42,0.14,0.94,-0.20,1.85,2.47,2.78,3.19,3.40,5.53,2.79,-0.09,2.30,3.30,0.82,-0.92,-1.03,-0.85,0.20,0.26,0.19,-0.94,-0.12,-0.88,0.86,0.60,-0.14,1.63,0.26,0.35,0.62,0.71,0.02,0.06
"ex239",-0.25,1.97,0.08,0.68,3.24,3.90,5.81,4.44,4.58,3.85,4.31,1.78,2.65,0.38,1.24,0.35,1.24,0.74,-0.83,1.83,-0.69,1.91,-0.98,-2.53,0.09,0.81,0.08,1.96,-0.36,-1.07,-0.87,-0.36,1.45,-1.58,0.09
"ex240",0.27,0.26,0.35,-0.49,1.43,-0.52,-0.21,2.15,1.34,3.69,4.44,3.25,4.28,3.88,5.43,1.70,2.64,1.39,1.87,0.65,-1.03,-1.05,-0.57,-2.13,-1.43,-0.14,1.28,0.61,0.64,-0.49,-0.01,0.82,1.38,0.46,-1.00
"ex241",-0.75,-0.21,1.08,2.60,1.69,2.86,2.50,5.17,5.17,3.30,1.49,1.81,1.83,0.85,0.82,-0.13,0.65,0.39,0.01,-0.40,0.13,-1.69,0.77,1.54,-0.51,0.19,0.61,1.16,2.05,0.09,-0.62,-0.86,0.36,1.28,1.74
"ex242",0.75,-1.08,-0.01,-0.78,-0.52,1.94,1.53,0.32,0.17,3.08,3.77,3.12,5.21,6.41,7.02,3.26,1.76,3.98,0.84,0.06,-0.96,1.89,-0.17,1.52,-0.27,-0.13,0.73,-0.53,-0.17,-0.11,0.59,1.31,-0.36,0.01,-0.04
"ex243",-1.03,0.44,0.57,2.67,2.81,3.13,6.45,5.02,5.62,5.32,3.63,3.88,2.11,3.72,1.42,0.26,1.06,-0.62,-1.25,-0.13,1.09,0.50,-1.52,1.89,-0.59,0.12,-1.78,1.03,-0.12,-0.15,1.52,1.23,0.36,0.49,0.17
"ex244",-0.01,0.74,0.34,0.64,0.56,-0.10,2.00,0.86,6.32,3.75,4.75,4.62,3.23,3.26,3.85,2.40,1.86,-0.25,-0.11,1.01,0.40,-0.17,-0.24,0.64,-1.07,-0.64,0.37,-0.01,-0.56,1.38,0.21,-1.42,0.56,-1.27,-2.20
"ex245",-0.29,0.80,0.34,0.22,-0.03,0.71,2.12,3.75,4.48,6.08,6.10,5.18,4.82,2.52,2.51,1.33,0.03,-0.56,-0.16,0.94,-1.06,0.57,-0.41,0.01,-0.73,-0.21,1.85,-0.40,-0.37,0.30,-1.41,0.12,-0.97,0.75,0.42
"ex246",-0.16,-1.14,-1.22,-0.22,0.52,2.36,0.21,1.53,-0.20,2.01,2.00,2.94,4.31,5.73,4.61,5.53,2.79,3.80,-0.18,1.55,-0.61,-1.32,0.06,0.81,-1.33,0.53,-0.81,-0.02,1.32,0.47,-1.65,0.27,-1.67,1.26,0.91
"ex247",-0.63,2.08,1.74,1.60,2.67,3.08,3.59,3.88,4.45,3.99,2.81,3.04,3.33,1.12,1.22,2.08,0.02,0.03,-1.67,0.23,-0.06,0.73,-0.29,1.84,-1.09,1.77,-0.43,0.94,-1.72,0.33,-0.76,0.64,-0.44,0.01,-1.64
"ex248",0.94,1.03,0.55,1.03,1.84,4.24,4.59,2.70,3.60,5.27,3.77,3.25,1.23,0.71,0.76,2.12,1.38,0.87,0.13,-0.10,-0.77,-1.61,-0.01,0.47,0.34,-0.36,-0.31,0.34,-1.17,-0.76,0.44,-0.16,0.66,-2.19,-0.27
"ex249",-1.10,-0.33,1.36,1.47,1.39,3.51,4.71,3.20,3.11,4.49,4.81,4.09,1.82,2.63,1.32,0.32,-2.53,-0.63,-0.06,0.81,1.27,0.65,-0.49,-0.87,-1.89,-0.20,-1.14,-1.16,0.09,-0.84,-0.20,1.18,-2.62,0.34,1.21
"ex250",-0.40,-0.31,-0.26,2.08,-0.14,0.69,-0.39,2.45,2.05,2.48,2.68,3.23,4.45,3.73,4.86,2.31,4.19,2.85,2.39,0.16,-1.23,-0.43,-0.51,0.20,0.44,1.73,-0.91,0.92,1.10,1.15,-0.09,0.10,-0.29,0.43,0.08
"ex251",-0.76,1.92,1.67,2.00,0.76,1.90,4.99,3.40,2.49,3.11,0.85,1.07,2.45,1.41,-0.27,0.19,-0.15,0.68,-1.13,0.77,-0.50,-1.09,-0.14,0.82,1.22,1.06,-0.28,0.90,-0.26,0.28,-1.19,0.26,0.51,0.44,0.20
"ex252",2.24,0.46,0.63,-0.37,1.14,0.42,0.21,2.48,2.17,3.36,5.28,3.69,3.86,2.16,3.00,3.44,-0.75,-1.06,0.74,-1.00,0.98,-0.66,-1.39,0.34,-0.06,0.65,0.38,1.31,-1.74,-0.86,0.75,-0.51,0.29,0.01,-0.78
"ex253",0.04,0.46,2.23,1.45,-0.13,2.71,3.52,3.58,4.24,6.53,3.16,3.66,2.57,0.60,2.57,0.34,-0.34,-0.15,-1.03,0.27,-0.45,-0.17,-0.89,0.10,0.04,0.08,-1.30,0.27,0.24,-1.63,-1.92,-1.13,-0.23,-0.65,0.36
"ex254",1.55,0.07,0.53,2.41,4.14,5.53,5.10,5.15,4.68,4.39,3.89,2.51,0.45,1.19,0.45,-0.54,1.05,-1.13,-0.38,0.60,-0.08,0.85,2.00,-0.46,0.24,0.99,0.43,-1.79,-0.24,-0.37,-1.00,1.20,-1.99,-2.09,-0.07
"ex255",0.30,0.53,0.99,-0.01,-1.32,0.58,0.87,1.50,2.27,3.30,4.04,5.86,4.12,5.41,3.63,1.84,1.04,0.92,0.19,0.02,-0.95,-0.08,1.32,0.59,-0.25,-0.58,-2.02,0.50,-0.29,-2.32,-2.12,0.38,0.10,0.16,0.20
"ex256",-0.10,-0.26,1.92,3.92,2.09,4.06,6.50,5.55,4.11,4.80,1.66,1.66,0.72,-0.96,-0.59,1.42,-0.77,0.52,-1.11,-0.99,-1.32,-2.67,-1.76,1.06,0.49,0.36,1.10,-1.58,-0.17,0.02,-0.65,0.24,-2.03,1.22,-0.66
"ex257",0.39,1.25,-0.79,-0.44,0.62,-0.00,0.90,3.41,2.64,4.82,5.36,5.92,4.27,3.27,0.81,3.03,1.56,1.62,1.25,0.41,0.09,0.86,0.84,0.11,0.28,1.29,0.30,-1.05,-0.87,0.38,1.91,0.50,0.61,0.35,0.75
"ex258",0.65,-0.59,-1.32,0.54,1.44,-0.15,-0.67,0.67,0.12,3.15,4.26,2.68,3.83,5.19,6.15,4.47,3.04,1.49,1.39,-0.69,0.61,-0.48,-1.37,0.05,-0.17,-0.92,-0.04,1.11,-0.81,-1.00,0.45,-0.58,0.55,-0.31,-0.46
"ex259",-1.20,-0.27,-0.46,1.86,2.40,3.20,0.31,2.26,4.24,1.52,2.17,0.49,2.56,3.83,2.89,3.46,-0.28,0.78,0.55,0.90,-0.08,-1.13,0.75,-0.03,0.37,0.01,1.21,-0.55,-0.08,-0.97,0.45,0.03,0.70,0.81,-0.44
"ex260",0.89,1.37,1.43,0.97,5.60,3.38,4.63,3.96,3.51,3.38,4.06,2.07,1.66,2.32,2.76,0.95,0.41,1.44,0.95,-1.47,-0.97,2.12,0.21,-1.42,-0.29,-0.01,-0.63,0.84,-0.57,0.13,0.97,0.48,0.70,0.51,-1.19
"ex261",0.73,0.74,0.14,-0.21,0.85,2.74,4.29,3.05,3.93,4.48,4.46,5.11,2.63,0.26,1.66,1.74,0.62,1.14,0.58,-1.34,-0.72,0.25,-0.46,0.47,-0.46,1.33,-0.63,-1.45,0.22,-0.88,0.46,-0.15,-0.24,2.06,2.12
"ex262",-0.31,-0.52,0.80,-1.06,-0.52,-0.11,-0.20,0.16,-0.88,0.32,3.54,4.49,3.71,4.17,6.83,4.75,4.02,4.72,1.68,0.12,1.12,-0.19,0.04,-1.12,1.03,-1.84,-0.52,-2.74,0.16,-1.75,1.20,0.99,-0.58,-0.30,0.32
"ex263",-0.02,0.67,1.60,1.98,4.52,3.91,5.99,5.89,3.51,2.05,1.65,-0.00,-0.61,0.30,-0.10,-0.47,-0.47,-1.18,1.35,1.87,-0.83,-0.74,-0.26,-0.55,0.44,-2.41,-0.04,-0.17,0.53,-1.09,-0.92,-0.54,-0.43,-0.95,1.64
"ex264",0.58,0.26,-0.49,0.14,2.96,2.23,3.48,1.34,1.39,0.99,3.15,2.64,2.28,5.32,4.87,4.13,3.26,0.38,0.40,0.02,0.96,0.24,-0.60,0.00,0.74,2.06,1.53,0.88,-0.94,-0.13,0.13,-0.20,0.56,0.46,-0.64
"ex265",-0.92,-0.34,0.43,-0.06,1.79,1.17,2.14,1.81,4.97,3.06,6.16,5.22,1.34,2.87,3.00,0.96,-0.01,1.49,1.20,-0.42,0.57,-0.61,-0.58,1.22,0.72,-1.05,-0.09,0.48,0.33,0.25,1.29,0.57,1.87,0.59,0.89
"ex266",0.15,-0.46,0.37,-0.17,-0.90,-0.74,0.78,1.58,1.93,3.20,3.60,3.59,3.22,3.54,5.72,3.11,4.54,0.67,2.72,-0.88,-0.10,-0.29,0.01,0.23,0.24,0.46,0.32,-1.22,-0.41,-0.07,-2.05,-1.07,0.45,1.27,0.67
"ex267",0.26,-0.29,0.47,0.28,-1.23,2.12,0.97,3.27,4.31,3.37,2.86,4.88,3.66,3.82,1.59,1.09,0.36,-0.34,0.45,0.35,1.82,0.20,-0.07,0.90,0.34,-0.01,-0.97,1.24,0.61,0.54,1.81,0.18,-0.37,0.67,-0.26
"ex268",1.55,0.08,0.90,-0.07,-0.96,1.76,2.41,4.21,4.47,5.09,3.82,2.60,4.53,2.13,1.40,0.88,-0.02,0.19,-0.29,-1.79,-0.12,1.83,-2.15,0.80,-1.05,1.90,0.89,0.63,-0.61,-1.90,0.87,-1.19,1.09,0.86,2.10
"ex269",-0.54,0.90,0.47,0.37,1.31,0.62,3.02,2.34,5.24,4.45,5.26,3.99,5.11,2.91,4.41,1.36,0.41,0.81,-0.75,0.22,1.13,2.68,0.10,0.19,-1.14,-0.17,-0.04,-0.70,0.73,0.02,0.70,-0.46,-1.61,0.02,0.38
"ex270",-1.31,1.08,3.12,1.54,3.21,4.19,6.06,4.38,2.79,3.55,1.82,3.05,0.55,-2.24,1.25,-1.09,0.75,-1.54,-2.21,-0.12,0.43,-0.90,0.32,0.85,0.03,0.26,0.89,0.92,-2.30,0.38,0.38,-0.71,1.36,2.83,1.37
"ex271",-0.22,0.42,1.31,-0.28,-1.04,1.52,-0.32,-0.71,0.76,0.97,3.66,1.91,5.67,3.84,4.84,3.79,4.02,2.60,1.10,0.96,1.61,0.58,-1.88,-0.84,0.78,1.26,-1.21,-0.20,0.83,-0.35,0.89,-0.29,2.69,0.76,-0.03
"ex272",-0.45,2.38,1.18,1.39,4.28,6.04,3.67,4.17,4.68,4.06,3.00,1.89,0.44,-0.39,1.07,0.27,0.59,-0.47,0.58,0.87,2.54,1.49,-1.58,-1.44,1.32,0.18,0.45,-0.87,-0.41,1.00,-0.40,0.15,-0.58,-0.62,-0.19
"ex273",0.31,-1.23,0.81,-0.33,0.94,1.35,0.59,1.79,3.63,3.07,5.27,3.99,4.95,4.25,2.54,0.74,0.79,-0.34,-0.06,-1.74,-0.90,0.45,-0.50,0.31,0.54,0.81,-0.17,2.09,-1.78,-0.59,0.50,0.09,-0.31,-0.80,0.56
"ex274",1.20,0.48,1.36,2.05,1.14,2.96,4.80,3.87,5.10,3.30,3.59,5.14,2.34,3.58,1.80,-0.22,0.27,1.05,1.12,-0.72,-0.69,0.05,0.84,-1.12,0.12,0.06,-1.57,0.62,0.34,-0.06,0.46,0.39,-1.18,2.09,-0.88
"ex275",1.88,1.52,1.63,2.92,2.88,3.67,3.89,4.21,4.21,3.92,4.14,3.48,1.76,1.49,2.01,0.37,-0.65,-1.02,0.47,-0.51,1.43,1.27,-0.11,-1.58,-0.12,-0.40,-0.35,0.62,0.65,-0.45,1.03,-0.68,0.06,0.63,1.08
"ex276",0.97,0.68,-1.15,3.17,1.93,3.86,2.52,4.31,3.24,5.45,4.62,1.68,1.65,2.77,1.08,0.27,1.16,-0.69,-1.08,1.11,-2.38,-1.60,2.28,1.84,0.10,-1.25,-1.14,0.72,0.65,-1.01,-0.69,2.78,-1.08,-0.09,0.18
"ex277",0.70,0.74,3.56,3.57,4.40,2.73,4.99,4.19,5.57,1.09,2.78,1.79,-0.20,1.51,-0.41,0.70,0.73,1.38,-0.54,1.32,0.62,1.36,-1.10,-0.33,1.22,-0.05,-0.62,-1.27,-1.45,2.11,0.01,-1.28,0.71,1.37,-1.40
"ex278",1.47,0.91,1.35,1.08,1.19,-0.94,1.18,-0.48,4.13,3.18,3.17,3.62,1.65,2.16,4.13,4.78,0.52,1.67,0.76,-0.31,0.11,0.88,-0.56,-0.21,0.64,-0.34,-0.25,-0.21,1.11,0.23,-0.35,-0.36,0.02,-0.34,-0.05
"ex279",-0.21,1.27,1.37,1.72,2.10,2.99,2.84,3.64,1.48,1.53,2.11,0.83,0.09,1.65,1.60,1.66,2.45,1.28,0.88,1.55,-0.60,-1.31,-0.07,-0.09,-1.40,-0.84,0.82,0.04,2.24,0.07,0.08,-1.11,-0.52,-0.46,-2.14
"ex280",-0.00,-1.48,0.62,0.52,0.48,2.73,2.07,3.52,4.12,5.66,5.58,4.23,5.11,3.98,3.79,0.58,0.31,0.18,0.02,-0.02,0.37,0.28,0.66,0.09,0.33,-1.22,0.37,-2.61,-0.17,1.83,1.51,-1.02,0.53,-1.86,-0.65
"ex281",-0.28,-0.39,-0.43,0.43,1.40,1.52,2.48,3.11,4.34,4.31,5.36,4.51,5.02,3.51,2.04,0.25,1.93,0.34,1.42,-0.61,-0.89,-1.63,1.41,0.36,-1.01,1.80,0.79,0.76,-1.28,-0.22,-0.44,-0.73,-1.22,1.42,0.44
"ex282",-0.48,0.64,1.59,3.94,4.62,5.65,6.62,3.99,3.89,1.73,2.36,2.38,-0.22,1.23,0.11,-0.61,1.01,-0.16,-0.41,-1.23,0.03,-0.86,0.51,1.88,-0.82,-0.57,0.62,-0.23,1.74,-0.43,-0.49,0.94,-0.28,1.21,0.10
"ex283",2.39,0.13,1.79,0.45,-0.08,1.57,3.14,4.05,3.17,4.95,4.64,4.72,2.96,0.42,1.51,0.54,0.63,0.43,0.51,-0.22,1.79,3.26,-1.04,2.02,-0.87,-1.66,-1.15,-0.19,0.15,0.33,0.47,-0.01,0.80,-0.13,-0.55
"ex284",-0.10,-0.02,-1.09,-0.41,-1.86,0.29,-0.56,0.60,1.74,1.81,3.33,4.54,3.89,6.31,3.88,4.04,2.26,1.88,0.88,1.89,0.37,0.25,0.28,-0.45,1.03,-0.39,0.08,-0.16,1.65,1.98,-0.90,-0.77,-0.48,0.87,-1.02
"ex285",-0.52,-0.51,-0.59,-0.01,2.06,2.58,-0.35,2.14,1.02,2.16,3.08,4.50,3.76,3.79,2.67,2.56,3.00,1.29,2.15,0.10,0.90,-1.09,1.30,0.56,-1.40,1.51,0.33,-1.08,1.54,-1.38,0.38,0.29,-0.17,0.71,-0.71
"ex286",-0.76,-0.57,0.46,-0.90,-1.13,0.58,2.00,3.00,3.25,2.99,5.65,3.97,4.19,4.45,2.48,1.60,1.27,4.48,-0.14,0.69,0.49,0.06,2.04,0.16,-0.92,0.37,0.75,-0.78,0.69,0.77,-0.11,1.89,-0.99,-0.01,1.80
"ex287",-1.92,0.37,3.30,1.66,0.30,3.37,6.10,2.04,3.27,3.54,1.18,1.31,0.98,2.16,3.76,1.13,1.15,1.76,1.84,-1.71,0.14,-2.00,1.26,0.28,-0.23,0.47,1.39,-1.36,-1.41,2.40,-0.15,-0.69,0.08,-0.68,1.11
"ex288",1.65,-1.76,0.78,0.78,-0.24,0.63,0.60,2.23,0.59,5.06,1.39,2.76,3.99,3.34,3.26,2.90,3.75,1.37,1.64,0.39,-0.41,0.61,-0.85,-0.39,1.82,0.80,1.50,0.13,-0.14,0.29,-1.21,1.06,-0.17,1.06,0.76
"ex289",-0.31,0.63,2.62,2.00,3.52,6.03,7.49,6.25,1.54,3.02,2.66,3.10,1.03,-0.03,-0.08,-0.13,1.00,0.44,-1.60,-1.42,-0.06,1.58,0.43,-0.41,-0.44,-0.54,-0.56,-0.51,-2.97,-0.75,-0.55,-0.27,0.93,-0.94,-0.28
"ex290",1.52,1.25,-0.40,-0.47,0.79,-0.15,0.98,1.19,-0.43,0.57,1.90,1.82,3.05,3.61,5.02,4.42,3.87,1.46,2.60,1.33,-0.83,-0.30,-0.18,-0.14,1.90,-1.86,-1.29,-0.48,0.50,0.55,-1.32,-0.88,-0.46,-0.34,-0.88
"ex291",1.64,1.45,1.66,-0.34,3.56,2.60,3.02,2.64,2.11,2.44,3.84,3.41,1.86,2.82,3.25,4.03,2.78,1.36,1.48,1.24,-0.81,-0.54,-0.08,1.05,-0.14,-1.20,0.21,-1.34,0.68,0.56,-0.47,0.75,-0.92,-1.45,0.72
"ex292",-0.55,-1.05,-1.61,1.37,-0.31,1.39,-1.21,0.36,2.84,2.70,2.55,3.26,5.05,5.35,6.33,5.38,1.97,1.18,0.94,-0.71,0.43,-0.14,-0.04,-1.42,1.02,0.34,1.03,0.88,0.37,-1.99,-0.93,-0.89,0.25,-0.10,-0.03
"ex293",0.22,1.42,1.13,1.19,1.82,2.86,5.41,4.27,5.51,2.62,2.83,3.16,0.44,0.75,-2.51,0.06,-0.17,0.81,0.19,0.36,0.31,1.71,-1.09,0.67,0.43,-0.93,-1.37,-0.39,-0.53,0.81,-0.20,-0.87,-0.07,-1.17,0.17
"ex294",0.92,0.61,0.26,-0.01,1.53,0.67,3.00,-0.90,-1.98,1.15,3.29,2.00,3.87,4.94,5.89,4.65,3.54,3.23,-0.45,1.39,0.78,-1.61,0.49,-0.46,2.41,-0.67,-1.15,-1.03,0.83,0.32,1.03,-0.41,-0.09,1.23,0.00
"ex295",-0.59,0.80,-0.29,-0.61,3.16,0.90,0.99,2.33,0.36,2.72,2.71,1.77,2.83,2.02,3.49,3.11,0.98,0.87,1.03,1.13,0.44,0.42,1.87,0.41,-1.25,0.22,-0.33,2.77,-0.29,0.25,-1.04,1.47,-0.09,-0.00,1.08
"ex296",1.28,0.03,-0.68,0.54,-0.82,0.30,1.95,2.95,3.74,5.75,5.40,6.32,0.93,1.57,2.00,-0.89,0.21,-0.18,0.59,-1.13,-1.06,1.23,0.75,-0.09,-0.14,-0.53,-1.22,0.36,1.16,-1.48,-0.93,0.87,-0.13,-1.18,-0.02
"ex297",2.96,0.26,-1.18,-0.94,0.65,2.57,-0.29,1.11,1.66,3.77,3.93,3.87,4.48,4.01,4.77,2.58,2.31,2.80,0.09,-1.67,-0.53,-0.29,0.23,0.31,1.58,1.39,-0.84,-0.48,-0.18,-0.14,0.15,-1.28,0.43,0.78,-1.49
"ex298",-0.40,0.69,1.47,0.52,2.58,2.74,4.37,5.13,3.09,5.74,4.73,4.79,0.64,1.59,2.04,-0.09,-0.81,0.76,-0.87,-0.38,0.67,0.14,0.63,-0.30,0.66,-0.44,-1.23,-1.10,0.53,0.70,0.51,0.71,-0.63,0.46,-1.98
"ex299",0.31,1.32,2.52,1.90,2.51,2.25,2.17,2.66,4.40,3.23,3.89,4.54,0.72,1.93,-0.36,1.20,-0.96,1.43,-0.19,1.01,-0.57,0.51,0.99,-0.12,-0.53,0.13,-0.31,-0.42,-0.32,-0.92,-1.18,-1.75,-0.76,-0.49,1.09
"ex300",-0.56,1.68,0.28,1.71,1.42,1.03,1.96,2.08,1.68,3.66,2.11,2.02,-0.30,0.96,5.41,1.40,1.55,1.42,3.02,1.03,1.22,1.59,0.58,1.44,0.89,-0.22,-0.24,-0.16,-1.50,-0.42,-0.64,0.80,0.55,0.13,0.99
"ex301",0.73,0.18,-0.37,0.42,-0.50,1.02,0.81,-0.34,0.09,-0.07,1.71,2.23,4.10,4.95,7.15,5.58,4.81,3.02,2.13,0.12,-1.06,-1.01,0.35,-1.17,-1.22,-1.37,0.38,-0.77,0.23,0.19,0.15,0.45,0.79,0.15,-1.99
"ex302",-1.55,-0.24,0.15,0.31,0.29,1.15,-0.68,0.17,-0.65,2.11,2.61,1.83,3.82,5.02,5.72,4.37,3.37,5.25,1.43,0.59,-2.17,0.31,1.25,-0.59,0.95,0.02,-1.00,0.38,0.30,-1.68,1.67,-0.68,0.02,0.14,0.61
"ex303",0.50,-0.06,1.17,1.43,2.07,1.29,4.83,3.58,4.28,4.10,4.88,5.19,2.77,1.74,0.21,-0.33,0.87,0.48,0.37,-1.13,2.28,0.46,1.09,-1.13,-2.13,0.47,0.11,0.29,0.57,0.52,0.71,1.26,-0.30,0.05,-0.45
"ex304",-1.55,0.00,-0.76,1.18,-0.01,-0.66,-1.37,-0.30,-0.59,-0.25,2.81,3.04,4.04,3.87,5.49,3.07,3.46,3.04,3.52,1.88,0.29,-0.86,-0.46,-0.39,-1.29,0.97,-0.65,0.17,0.61,-1.17,1.41,0.41,-0.81,0.53,-0.20
"ex305",-1.03,0.20,-1.40,1.92,0.53,3.18,3.51,3.98,5.37,4.70,3.40,0.45,1.89,1.40,1.63,0.56,-0.73,-0.45,-0.92,-1.09,-0.25,1.36,-0.72,1.16,-0.79,-0.10,-0.56,-1.71,0.17,-0.56,0.31,1.55,-0.53,-1.49,-0.22
"ex306",0.32,-0.19,-1.44,-1.22,0.67,0.87,2.57,2.28,4.66,5.70,5.05,4.11,3.98,2.90,2.38,-0.04,1.06,1.20,-1.02,-0.77,-1.35,0.51,1.00,-1.14,1.51,-0.67,-0.79,-1.73,-0.35,-1.04,-0.57,-1.50,-1.58,0.19,-0.17
"ex307",-0.56,0.58,0.69,-0.20,-1.14,-0.24,0.10,-0.27,-0.10,1.76,2.48,3.06,3.35,3.73,6.75,7.75,5.42,3.78,0.25,1.03,-0.49,0.29,-0.94,-1.67,-0.39,1.11,0.38,-0.56,2.38,-1.15,1.57,0.69,1.69,-0.38,0.40
"ex308",1.40,0.42,1.14,-1.30,0.38,1.86,2.29,2.85,4.74,4.25,6.56,4.58,4.25,3.56,1.39,0.54,-0.68,0.48,-0.25,0.29,0.31,1.63,1.44,-1.40,0.08,0.33,-1.84,-0.35,1.89,-0.13,2.27,-0.19,1.09,0.59,1.90
"ex309",-0.01,-0.94,2.94,1.13,0.54,0.83,5.16,3.61,2.62,3.11,4.90,3.08,1.62,3.14,-0.18,-0.62,-0.29,-0.78,-0.34,0.74,1.21,-2.00,0.49,2.08,-0.29,-1.70,0.95,0.64,0.66,-0.23,-0.55,-0.28,0.75,-1.05,-1.61
"ex310",0.80,-1.50,1.52,1.44,1.42,-0.45,0.88,1.72,2.00,3.08,4.06,4.58,4.72,5.92,3.07,5.73,1.11,0.81,0.74,0.48,-1.48,1.64,0.21,0.04,1.02,-0.73,-1.44,0.34,-0.41,-0.13,0.51,1.72,1.18,-2.78,0.81
"ex311",-0.51,1.04,1.88,1.67,2.57,3.15,4.66,4.10,4.43,4.09,1.31,2.12,1.33,-0.71,0.30,1.59,0.15,0.87,-0.29,1.51,-0.30,-0.74,-0.69,-1.73,-0.05,-0.78,-0.46,0.83,-0.30,-1.07,1.19,-0.38,-1.57,-0.67,-1.33
"ex312",0.39,0.69,0.36,1.15,0.63,-0.95,-0.67,-0.38,-0.00,-0.25,2.83,2.25,4.39,3.72,6.86,1.97,3.08,3.22,3.29,-0.45,0.89,-0.72,-0.80,1.67,-0.12,-1.35,1.61,-1.10,-0.01,-1.58,0.36,0.13,0.48,2.24,-1.45
"ex313",-0.69,1.07,1.71,-1.82,2.03,0.69,2.80,0.42,3.01,2.57,4.29,2.41,4.37,3.27,2.33,2.26,2.23,0.57,0.20,2.87,-1.87,0.17,0.37,-2.88,1.07,-1.59,0.90,-0.74,-1.26,-0.04,-0.11,2.44,1.12,1.04,0.30
"ex314",-0.30,2.12,1.06,0.32,1.12,2.11,3.53,1.49,-0.20,3.47,2.70,1.26,2.49,3.58,3.58,3.54,3.86,1.35,1.68,1.27,0.40,-0.61,-0.05,0.01,-0.14,-0.36,-0.34,0.57,0.13,-1.73,0.08,-1.15,-1.77,-0.47,-0.51
"ex315",0.61,0.56,-0.86,1.61,0.81,1.99,0.56,1.42,-2.07,1.29,2.25,3.44,4.15,5.42,4.34,3.40,4.40,2.59,1.20,0.23,1.37,1.82,1.27,-0.23,0.49,-1.54,-1.81,0.13,0.41,-1.03,-1.06,1.18,1.27,1.21,0.59
"ex316",-1.03,0.48,-0.93,-1.42,0.05,-0.27,0.76,-0.28,-0.37,2.37,2.83,4.09,4.16,5.97,5.07,4.30,1.33,3.55,3.80,0.23,0.46,0.86,-0.81,-0.67,-0.58,0.59,-1.62,-1.03,0.26,-0.25,-0.25,2.30,0.76,-1.32,-1.04
"ex317",1.46,-1.10,-0.07,-0.00,0.78,-0.78,-0.94,2.07,0.25,2.49,3.05,3.42,5.08,5.45,4.96,6.10,2.21,0.55,0.01,1.23,1.01,-0.40,-1.31,1.92,1.70,1.50,0.37,-0.25,-0.82,0.75,-0.39,-0.93,-0.41,-0.12,0.28
"ex318",-0.41,2.29,0.90,0.31,0.37,2.06,2.38,3.39,3.92,4.20,2.32,5.55,1.89,1.84,1.15,2.12,-0.39,-1.43,-1.11,-0.37,-1.12,-0.63,-0.73,0.30,0.51,0.66,0.19,0.09,0.23,0.66,-0.03,-0.69,0.47,-0.73,-0.47
"ex319",0.37,-0.98,0.64,1.44,-0.38,1.44,1.60,1.11,0.50,0.46,1.84,2.62,4.77,1.96,4.97,2.55,3.44,2.44,0.27,0.18,-0.76,2.08,-0.55,1.42,-0.41,1.63,-1.28,1.39,-0.87,-0.59,0.32,-2.37,0.76,-1.08,-0.05
"ex320",-0.27,-0.18,0.87,0.01,0.69,1.02,1.40,0.15,2.22,1.51,1.83,4.56,3.47,4.22,3.43,3.36,5.26,2.00,2.57,-0.97,-0.52,-1.17,-0.55,0.65,0.10,-0.66,-0.66,0.39,-0.92,0.42,-1.13,-1.08,-0.41,1.06,-0.09
"ex321",-0.92,0.77,2.54,3.00,1.86,3.97,3.60,4.89,3.27,1.27,2.34,1.44,2.08,0.85,3.05,1.95,0.76,2.42,0.69,0.76,1.54,1.18,-0.33,-0.26,-1.32,-0.43,0.12,-1.21,-0.77,-0.65,0.12,1.02,-1.80,-0.14,-0.28
"ex322",0.51,-0.07,0.25,1.67,4.23,4.60,5.21,3.93,3.53,1.79,0.45,1.56,0.30,0.16,0.35,1.43,0.16,-0.05,-0.68,1.27,-0.29,-0.65,1.21,1.05,0.45,0.60,-2.09,-0.44,0.36,-1.29,0.27,-0.11,-1.62,0.42,-1.90
"ex323",-0.77,-1.12,0.39,0.97,0.90,2.97,1.31,3.26,2.86,5.41,5.55,3.46,2.03,2.34,0.13,0.05,0.99,0.40,-0.53,1.60,-0.78,-1.00,1.47,0.89,1.31,0.37,0.45,-0.69,1.55,-0.36,0.20,1.14,-1.37,-1.21,-1.09
"ex324",-0.12,2.33,-0.27,-0.67,-1.56,0.93,2.21,-0.66,1.17,0.16,0.48,5.88,3.18,4.41,5.40,6.65,5.10,4.26,2.17,0.78,-0.35,-0.34,-0.93,0.39,0.99,0.35,-0.55,1.02,0.55,0.62,-1.75,1.18,0.44,-0.52,-1.11
"ex325",0.57,-1.18,1.59,1.53,4.22,2.71,5.05,4.26,2.13,3.95,2.31,0.38,0.88,1.93,0.68,0.53,1.42,1.11,-0.36,0.74,0.04,-0.23,-1.05,-0.70,0.79,-1.11,0.27,-0.87,1.30,0.36,1.86,-0.34,1.25,0.10,-1.05
"ex326",0.16,2.22,0.37,1.78,3.55,4.07,6.61,6.13,4.04,0.61,2.27,0.81,1.16,0.69,2.36,1.65,-0.19,0.17,0.59,0.41,1.22,-0.54,0.95,0.44,0.09,1.08,1.09,-0.57,-0.04,-0.38,-0.64,-0.31,-0.01,0.68,-0.10
"ex327",0.63,-1.27,0.15,-0.16,-0.55,1.33,-0.84,-0.77,0.78,0.66,2.55,1.74,4.29,5.64,6.66,5.79,3.39,3.73,3.00,2.48,-0.28,-1.32,0.42,0.80,1.55,-1.11,0.71,0.99,-0.11,1.71,0.25,-1.44,-0.48,-1.14,-0.47
"ex328",-0.01,1.85,-0.75,0.06,-1.54,1.07,3.07,1.77,0.64,3.01,2.58,2.36,4.61,3.73,5.05,4.44,3.72,2.57,1.14,0.37,-1.09,-0.14,1.42,0.45,1.21,-1.90,0.69,1.38,-0.60,-0.76,0.48,0.16,-1.04,0.48,-1.22
"ex329",-0.36,0.23,-0.46,-0.19,-0.23,-0.63,-0.68,0.79,-0.51,1.34,1.97,2.66,3.58,3.77,6.15,4.23,4.37,2.80,3.28,1.32,-0.33,1.24,-0.13,1.69,0.35,-0.19,0.65,-0.16,0.27,-0.43,1.16,0.20,1.67,0.44,1.45
"ex330",-0.98,1.02,1.42,1.00,3.00,4.19,5.36,4.92,3.77,3.95,2.03,2.91,0.35,-0.15,-0.49,-0.60,0.08,1.00,0.59,-1.14,0.56,-1.11,0.82,-2.53,0.08,1.40,-1.19,0.17,-0.01,-0.05,-0.92,-1.37,-0.15,1.07,-0.02
"ex331",0.12,1.53,0.58,0.84,3.30,2.71,4.30,3.52,6.78,3.46,1.94,3.67,0.73,2.26,0.22,-1.86,0.78,0.73,0.96,-1.69,0.99,-1.25,0.49,-1.96,-1.32,0.30,-0.82,2.14,1.24,-0.39,0.28,0.49,-1.69,0.59,-0.05
"ex332",0.80,1.93,2.88,1.81,4.29,4.89,3.99,3.99,6.22,3.50,3.31,1.93,0.48,2.04,1.27,1.21,0.45,0.99,0.23,0.03,-0.02,2.00,1.50,2.08,-0.04,0.90,-1.42,-2.57,0.11,-0.06,1.71,2.72,-0.65,-0.06,-0.87
"ex333",-2.15,0.21,-0.52,0.06,0.05,-0.41,0.11,0.94,-0.34,0.17,4.22,2.88,4.56,2.06,5.82,4.96,2.06,2.54,3.30,-0.02,1.26,-2.55,0.36,-0.15,-0.40,0.06,0.61,0.27,-0.60,-0.04,1.17,0.82,-0.42,2.11,0.28
"ex334",0.84,-1.54,-1.52,-0.75,0.16,-0.37,1.83,1.18,3.10,3.61,4.04,3.56,4.38,3.70,3.00,1.72,1.03,0.10,1.77,0.55,0.06,-0.65,1.05,-0.65,-2.18,1.27,0.35,-0.51,0.38,-0.93,-0.18,-1.13,-0.21,0.16,1.02
"ex335",-1.21,-0.23,-0.00,-0.32,0.94,2.65,3.42,3.79,0.65,2.72,1.86,1.48,3.37,2.36,4.18,1.99,2.75,1.25,-1.16,3.03,-0.68,-0.74,0.09,-0.98,-1.19,0.06,0.51,1.45,2.30,0.07,1.30,-0.65,1.68,0.41,1.50
"ex336",0.47,0.47,-0.37,-1.98,1.91,0.75,0.63,2.16,3.75,2.75,6.01,3.31,4.13,3.36,2.54,2.71,0.41,0.44,-0.15,1.76,1.21,-0.51,1.75,-0.82,0.06,0.26,0.08,-0.73,0.77,0.08,-1.30,-0.08,0.17,-0.36,-2.02
"ex337",0.50,-0.02,-1.05,-0.45,-0.86,1.64,1.07,0.24,0.15,1.93,3.07,4.49,5.40,3.86,5.02,6.23,5.50,4.04,1.82,-1.49,-1.43,-1.07,-0.17,-1.45,0.54,1.76,-0.95,-0.16,-0.14,1.53,1.46,0.78,-0.60,1.02,1.48
"ex338",1.15,-0.47,0.48,0.97,1.13,3.44,2.74,2.10,1.66,3.07,5.22,4.27,3.35,2.79,1.20,-0.07,0.23,-0.44,1.12,0.02,0.19,1.12,-0.17,-0.54,-0.20,-2.51,-1.20,0.26,-0.00,1.03,-0.20,0.08,-1.68,0.43,-1.37
"ex339",2.13,0.14,-0.03,1.38,1.35,2.42,1.22,1.75,0.76,-0.37,2.07,2.53,4.61,1.48,4.12,3.36,3.53,2.34,-0.04,0.64,1.31,-0.78,-1.32,-0.47,1.02,-0.02,0.73,1.20,-1.40,-0.80,-1.32,0.81,0.87,1.33,0.94
"ex340",0.32,-0.44,1.28,-0.16,0.58,-0.41,1.05,1.62,1.35,3.85,3.36,2.73,2.86,4.30,2.89,4.66,3.40,3.01,2.74,0.40,-0.32,-0.02,-1.33,-0.11,2.71,-0.83,-0.72,0.46,1.02,-0.96,0.50,0.62,0.69,-0.69,-1.37
"ex341",-0.05,-0.81,1.00,2.30,1.33,3.28,2.46,3.11,5.19,4.19,3.57,1.64,2.39,4.28,0.84,0.89,0.41,0.63,0.60,1.04,-0.03,-0.21,1.14,0.54,0.25,-0.03,0.07,0.34,-0.67,-0.60,-0.48,0.82,-1.44,1.02,-0.11
"ex342",1.20,0.12,0.04,4.70,3.72,4.52,6.22,5.52,3.99,3.74,3.91,2.33,1.48,-0.91,-0.42,-0.07,0.35,-0.01,-2.43,-1.74,0.59,1.20,-0.56,-0.10,-0.55,0.46,-1.30,0.07,-0.82,0.34,1.35,0.75,-1.75,-0.91,0.30
"ex343",0.85,0.94,0.70,-1.29,3.50,2.32,1.79,3.05,5.54,4.34,5.49,4.10,4.70,1.02,1.36,-0.47,0.60,0.83,0.07,-1.02,0.46,0.12,0.20,-1.47,-0.79,-0.30,0.82,-1.70,-1.29,0.99,-1.04,0.73,-0.07,0.45,-1.03
"ex344",-0.98,-1.06,1.70,-0.64,0.02,1.72,1.62,0.83,2.89,2.65,3.82,5.07,3.81,3.60,1.72,1.94,2.38,1.16,1.23,0.67,0.26,-0.50,0.72,-0.52,2.09,0.43,-1.02,-0.25,-0.86,1.13,0.43,-2.51,0.18,-0.65,0.56
"ex345",0.20,0.53,2.81,3.52,1.68,4.73,5.31,5.03,2.12,2.18,3.35,0.77,-0.42,0.68,1.73,-0.11,0.07,0.88,0.26,-0.35,-0.52,0.42,-0.36,0.39,-2.26,-1.46,-1.33,1.08,-0.20,0.81,0.47,0.09,-1.03,0.81,0.26
"ex346",-0.20,0.78,0.44,2.30,2.29,4.17,4.21,2.29,2.58,2.73,2.33,1.54,1.70,2.15,2.73,1.32,2.71,1.24,0.88,0.31,-0.23,1.57,0.08,0.15,-0.68,0.14,1.82,-1.20,0.05,-0.33,3.78,0.89,-0.81,-0.41,0.52
"ex347",-0.49,0.81,-1.80,1.24,-1.26,0.98,1.43,2.01,1.83,3.57,2.78,1.31,6.36,4.03,3.26,1.68,1.64,1.22,1.50,0.87,-1.77,-0.22,0.17,-0.08,-0.67,-0.60,2.79,0.15,0.16,0.15,-0.30,-1.09,1.28,-0.35,0.67
"ex348",1.50,0.44,0.84,1.95,-0.31,0.95,-1.14,0.51,1.52,3.48,0.17,1.09,3.88,2.97,5.51,4.75,5.56,3.06,3.32,0.70,0.91,-0.65,0.69,0.78,0.40,-0.69,-1.34,-0.20,1.13,1.03,-0.55,2.11,1.17,0.65,-1.42
"ex349",-0.63,0.28,0.69,-0.19,1.55,2.50,2.39,1.17,1.71,2.08,2.62,0.65,2.64,3.81,4.64,1.28,2.38,-0.34,1.66,-0.90,-0.56,-0.17,0.35,0.50,-2.16,1.30,-2.26,0.70,-0.60,-0.01,-2.45,-0.85,-2.39,0.53,0.34
"ex350",-0.97,0.52,1.44,-0.60,-1.69,0.26,-0.84,-0.26,0.52,-0.06,3.17,2.32,5.52,4.94,5.09,3.13,4.01,3.11,2.34,-0.40,0.45,-0.26,0.29,1.10,-2.08,0.04,1.63,-0.32,0.78,0.33,-1.13,-1.42,-0.12,0.26,-0.21
"ex351",-0.42,-0.11,0.22,-0.23,0.14,1.19,3.38,3.69,2.74,4.46,5.66,4.61,3.59,0.51,3.04,1.78,0.94,-0.65,1.10,0.25,-1.67,0.57,1.80,-1.91,-1.43,-0.10,-0.15,0.15,0.24,-0.70,-0.13,-0.48,-1.05,0.30,-0.53
"ex352",0.42,-0.02,-0.64,1.35,-0.44,1.08,0.90,1.39,2.75,1.91,3.94,3.60,4.10,3.67,5.41,1.57,1.22,0.18,0.92,0.29,1.05,0.12,-0.88,-0.22,-0.56,-0.21,0.52,0.60,0.04,-1.92,-0.90,0.92,0.32,-0.64,-0.85
"ex353",1.43,0.59,-0.40,-0.10,0.81,0.31,2.48,2.42,4.03,4.80,6.66,5.09,4.19,2.54,0.79,1.17,0.75,1.33,1.28,0.42,0.84,2.50,0.78,-1.39,0.76,-0.28,-0.61,1.55,0.60,-1.18,0.31,-0.19,-0.70,0.92,0.38
"ex354",1.27,0.37,-0.15,2.16,-0.28,1.95,1.67,1.90,0.06,-0.91,2.33,4.30,3.48,3.56,4.93,5.15,3.16,1.01,1.38,-0.62,-1.05,-0.46,-0.44,-1.15,-0.21,0.35,-1.19,-0.58,1.48,0.53,-1.36,-0.11,0.74,0.35,0.57
"ex355",0.87,0.27,3.12,1.72,3.33,4.71,4.38,2.78,3.39,1.79,3.57,2.79,2.56,0.46,2.61,0.80,2.97,0.02,2.87,0.43,-0.35,-1.31,-1.92,0.64,1.31,-0.09,-1.80,-1.13,1.29,-0.04,-0.42,-0.89,-0.37,-0.57,-0.45
"ex356",-0.94,1.25,1.45,2.47,4.48,4.35,4.06,3.87,4.53,1.18,3.00,1.45,0.89,1.63,3.20,0.19,1.28,0.78,0.55,0.15,-1.10,-1.16,0.08,-0.95,-0.70,1.17,-0.07,-0.58,-0.35,-1.61,-0.52,-1.05,1.03,0.25,1.51
"ex357",-1.96,1.28,0.75,1.13,0.53,3.22,3.21,2.93,1.38,3.45,6.30,2.83,1.63,1.74,1.26,1.77,-0.12,1.43,0.02,0.37,0.81,-0.42,-0.75,0.11,0.15,-1.02,0.52,2.02,-0.59,-1.20,-0.88,-0.41,0.11,0.29,0.23
"ex358",-0.04,-0.93,-1.60,-0.13,-0.16,-0.13,1.34,-0.06,2.67,4.97,5.74,2.31,3.83,3.17,2.73,2.57,1.90,0.11,0.52,0.58,-1.57,0.05,0.91,0.14,-0.38,-0.74,-0.28,0.77,-0.01,0.22,-2.83,-0.48,-0.67,-0.42,-0.31
"ex359",0.65,-1.05,0.05,0.59,0.57,2.42,2.83,1.38,2.66,3.63,3.99,5.25,1.42,3.27,0.58,0.46,1.35,-0.56,1.94,-2.85,-0.73,1.25,-0.37,-1.57,-1.72,-2.19,0.08,-0.43,0.80,0.22,-0.25,-1.25,0.71,-0.16,-0.85
"ex360",-0.28,-0.33,-1.66,-0.61,0.56,-0.79,1.44,0.22,-0.31,-0.19,2.40,4.74,3.79,4.50,5.97,3.54,2.90,2.32,1.97,-0.51,0.50,0.33,0.24,0.01,1.90,0.12,0.66,-2.22,-0.70,-0.55,1.61,-1.58,0.50,0.69,2.36
"ex361",-1.10,0.89,-0.49,1.31,2.61,3.12,4.43,4.93,4.36,2.56,4.92,4.66,3.23,2.15,-0.95,0.36,-0.45,0.97,1.13,0.11,0.88,-0.95,0.64,-0.63,0.58,-1.71,1.90,-0.20,-1.79,0.38,0.60,0.08,0.53,0.70,-0.64
"ex362",1.24,1.75,3.09,3.08,3.39,3.22,5.38,4.55,3.24,2.52,2.66,1.15,0.69,0.43,0.84,0.11,1.25,0.64,-0.14,0.78,-0.75,-0.02,0.14,0.97,0.95,0.91,0.06,0.78,0.27,-2.38,-0.38,-0.04,-1.44,0.89,-1.91
"ex363",-0.66,-1.55,1.17,-0.58,-0.56,-0.49,3.05,-0.42,3.37,3.75,5.61,3.90,4.90,5.05,2.65,1.54,3.23,-0.72,0.92,0.43,0.00,-0.91,1.26,1.33,1.25,-1.48,0.05,-0.83,-1.01,0.22,-0.47,1.26,0.52,-0.36,-1.12
"ex364",-0.47,1.13,0.23,-0.73,0.61,-0.37,0.64,-0.56,-0.26,1.43,2.70,4.11,2.83,2.86,4.69,2.18,3.42,1.66,0.35,2.05,-1.09,-0.15,0.08,-0.44,-1.88,0.13,0.53,0.91,0.18,0.92,0.72,-1.18,-0.31,1.60,1.38
"ex365",1.36,-0.77,-0.27,0.22,-0.29,-0.00,3.35,1.20,3.30,6.00,7.37,4.32,3.35,2.41,2.38,0.62,-0.90,0.32,-1.10,1.05,2.99,1.42,-0.16,1.30,0.53,-1.18,0.26,0.77,0.51,0.28,0.23,-1.57,0.22,-1.02,-0.57
"ex366",-0.91,1.52,-0.43,-0.31,-0.95,0.21,0.76,0.25,0.90,0.83,2.03,2.96,6.49,5.06,4.65,2.63,3.64,2.34,2.42,1.38,-1.51,-0.06,-0.31,-1.21,1.58,-1.07,-1.16,-0.96,1.95,-0.23,1.65,-0.64,0.06,-0.27,-1.08
"ex367",0.13,1.03,-0.08,-0.72,0.55,-1.73,1.00,-1.08,1.30,1.18,3.05,2.60,3.73,3.63,4.82,5.86,3.51,4.63,1.40,1.06,0.26,0.65,1.47,0.48,1.71,0.84,-0.13,0.63,-0.02,-0.76,-1.18,1.04,0.23,0.17,-0.91
"ex368",-1.51,1.02,0.11,1.31,-1.42,2.57,-0.45,1.64,2.74,1.14,3.62,4.80,3.95,4.86,6.22,3.36,3.30,1.83,1.88,0.77,0.48,0.37,1.00,-1.86,-1.54,-0.68,-0.34,0.15,-0.33,-0.14,0.67,-0.35,-0.71,0.28,-1.26
"ex369",-1.21,1.33,-0.46,1.99,4.54,4.50,2.97,2.63,3.01,1.77,2.67,1.29,1.08,2.16,1.82,0.69,2.83,1.23,0.33,-1.47,-1.35,0.62,0.76,0.23,-1.64,0.43,1.71,0.10,0.11,0.26,-0.04,-0.14,-0.92,1.39,-1.05
"ex370",0.00,-0.61,0.49,-0.30,-0.52,-0.61,0.00,-0.45,-0.06,1.05,2.19,3.90,2.51,4.45,4.35,6.05,4.63,3.21,3.37,0.98,0.21,-0.20,-0.14,-2.17,1.22,-0.97,0.34,0.81,1.38,1.66,1.78,-0.22,1.79,0.32,-1.97
"ex371",1.47,0.09,-0.37,-0.12,3.24,1.79,2.76,2.56,0.92,2.49,0.97,1.51,2.20,3.22,3.91,1.79,2.53,2.92,1.48,0.65,0.19,-1.38,-1.34,-0.69,0.90,0.25,0.23,1.29,1.20,1.82,-0.93,0.61,1.74,0.79,-0.69
"ex372",0.96,-1.35,-0.92,0.10,-1.05,1.64,0.67,-0.83,-0.29,0.17,2.35,2.68,3.44,4.16,5.65,3.91,3.32,1.49,2.08,1.15,-1.10,-1.58,-0.36,-0.09,0.86,-0.82,0.28,-1.41,-0.69,0.48,-0.74,-0.53,0.49,-0.23,0.81
"ex373",0.21,0.99,-0.19,-0.74,-1.40,0.16,2.22,1.58,3.14,5.28,5.72,3.86,3.56,3.00,0.36,1.31,-0.26,0.96,-0.83,0.05,-0.23,-0.07,0.16,1.42,-0.24,-0.91,-0.72,-1.02,-0.09,1.68,-0.13,0.48,0.10,-0.28,-0.98
"ex374",-1.29,0.62,-1.02,-0.19,-1.51,1.68,2.11,1.49,5.09,4.02,4.60,5.36,5.12,3.86,2.53,1.84,-0.05,0.80,-1.42,-0.66,-0.31,2.40,-0.59,0.32,1.63,-1.48,-0.39,-0.08,-0.42,0.03,1.25,-0.91,1.09,-0.60,1.00
"ex375",0.80,1.03,1.12,1.21,2.49,2.63,4.15,2.08,3.17,2.00,0.47,3.31,1.85,2.85,3.98,1.91,1.05,2.58,1.95,1.84,-1.80,-0.19,-0.38,1.44,-1.00,-1.45,-1.40,0.34,-2.19,2.94,-0.81,0.70,-0.21,1.74,-1.47
"ex376",1.32,1.25,2.02,2.12,4.96,4.61,6.04,5.16,2.38,2.63,2.70,0.73,-1.40,-0.40,-0.12,1.12,-0.66,0.44,0.82,0.08,1.22,-0.84,-0.58,1.70,-1.34,-0.78,-1.07,-0.94,-0.25,0.78,1.20,1.21,-0.71,-0.78,-1.62
"ex377",-0.63,-0.83,1.29,-1.28,2.13,3.57,3.93,3.89,4.78,2.97,3.33,5.95,2.77,0.46,2.00,-0.20,0.34,-0.71,-0.05,0.44,1.17,0.57,1.57,1.78,-0.02,-0.29,-0.02,-1.74,1.50,0.54,1.16,-0.70,0.97,-1.18,0.01
"ex378",-0.49,0.79,2.51,1.90,3.03,4.15,5.17,4.63,3.49,2.79,0.85,0.61,-1.34,1.03,1.63,-0.49,1.50,1.62,-0.98,0.98,0.39,0.20,0.61,0.01,0.01,-0.67,-0.25,2.19,0.64,0.51,0.23,-0.62,0.76,-0.45,0.24
"ex379",0.29,-0.83,-0.08,0.97,-0.17,-1.00,2.70,1.61,0.72,2.23,3.93,4.76,2.54,4.39,4.86,3.85,2.35,0.06,2.62,-1.36,-0.81,0.56,-1.86,0.06,0.70,-1.59,1.20,0.97,-1.03,-0.76,-0.60,0.36,0.44,-0.66,-0.70
"ex380",0.47,0.51,0.43,-0.47,2.68,0.56,1.46,3.01,3.17,3.05,1.20,4.09,4.13,8.04,4.59,2.91,2.72,2.77,0.78,1.80,1.54,-0.46,-1.15,-0.55,1.01,-0.56,0.05,0.30,0.33,0.49,0.63,0.19,-0.02,-1.14,0.90
"ex381",-0.87,0.99,3.18,2.82,3.83,4.55,5.95,5.30,3.91,1.79,2.41,2.47,1.36,2.00,0.33,1.88,1.78,0.64,0.74,1.36,-2.12,0.75,-0.25,-0.69,-1.10,-0.77,0.28,0.23,-2.07,0.31,-0.01,-1.65,-0.50,1.21,-0.92
"ex382",0.19,1.52,0.96,1.71,2.24,4.37,2.64,2.90,1.94,2.02,2.26,1.14,2.44,3.88,1.94,1.68,2.31,0.78,-1.19,-0.08,-0.89,-0.55,3.10,0.46,-2.01,-0.44,0.73,-1.26,-0.81,0.87,-0.67,1.03,-0.36,2.14,-1.15
"ex383",2.20,0.21,0.39,2.73,0.03,3.16,1.94,4.50,0.93,2.23,1.67,2.13,4.40,1.72,2.44,3.53,2.31,-1.14,2.70,-0.14,1.29,0.27,0.82,-0.51,-0.03,0.23,0.92,-0.30,-0.97,-0.63,0.76,0.09,0.05,-1.61,-0.86
"ex384",0.33,1.34,0.57,3.06,2.66,2.38,3.76,3.67,5.58,4.70,3.51,2.55,1.52,1.36,1.55,0.77,-1.19,-0.48,0.91,-1.37,1.11,-0.27,0.74,0.63,-1.38,0.37,-1.06,-1.01,-0.44,-1.38,-1.03,-0.60,-1.02,-0.12,1.03
"ex385",-0.02,-0.72,1.66,-0.46,1.06,0.40,0.44,0.63,4.06,3.09,4.82,5.56,3.48,3.62,3.65,1.52,1.88,0.27,0.39,0.56,1.48,0.41,0.77,0.75,-0.66,0.98,-0.42,-0.99,-0.29,-0.90,-0.30,0.02,-0.47,0.47,-1.77
"ex386",-0.21,0.66,2.67,3.64,3.74,3.13,6.21,4.15,5.56,1.65,0.29,1.52,-2.34,1.52,-0.54,-0.20,-1.27,1.49,0.01,0.51,-0.34,1.66,0.35,0.35,-1.44,-1.08,-0.61,0.12,-0.15,1.26,-0.23,0.17,-0.37,0.45,-1.15
"ex387",0.21,-1.32,0.81,0.81,0.99,3.00,3.36,4.02,2.21,1.97,1.38,2.16,0.69,1.67,1.56,0.06,-0.95,0.62,1.05,1.71,0.06,-0.05,0.36,-2.35,-0.48,1.62,0.11,-1.17,0.04,-0.10,-0.08,-1.35,1.07,1.75,-0.85
"ex388",-0.44,0.91,0.22,1.21,3.63,4.58,5.37,4.18,5.90,4.40,3.30,1.72,1.56,0.78,1.63,3.41,-0.22,-0.06,-1.38,0.31,1.06,-1.34,-0.17,-2.20,1.43,0.63,-0.64,-0.02,-0.06,-0.35,0.97,-0.37,-2.35,0.60,0.71
"ex389",-0.28,0.26,0.12,1.29,-0.13,1.63,0.96,2.36,1.76,2.43,3.06,2.95,5.19,3.49,3.10,2.74,1.92,2.64,0.52,1.49,-0.46,-1.21,-0.68,-2.06,1.09,0.29,-0.69,-1.40,-0.54,0.22,1.73,-0.02,-0.53,0.57,0.77
"ex390",-0.11,2.62,1.73,3.70,2.12,3.71,4.75,6.53,5.73,3.66,2.70,1.07,-1.23,0.39,-1.24,0.18,2.46,0.90,2.14,0.87,-0.95,-1.27,0.07,-0.39,-0.47,0.64,0.21,-2.37,0.56,0.55,1.59,0.09,0.27,-1.87,-1.15
"ex391",-0.94,-0.55,2.13,4.77,3.68,3.88,5.03,4.82,2.68,3.61,3.29,2.32,0.87,0.26,-0.18,0.10,0.44,-2.38,0.43,-0.57,-1.45,-0.15,1.43,1.01,-0.55,0.28,0.14,1.07,-0.65,1.12,-0.17,-0.26,0.45,0.82,-0.31
"ex392",-0.12,2.97,0.24,-0.71,0.66,0.91,2.27,1.91,2.00,4.18,3.69,4.09,2.10,2.96,3.11,2.28,1.28,0.88,0.56,1.42,0.46,0.92,0.45,-0.45,0.18,-0.75,1.67,-0.51,0.40,0.36,1.00,0.43,1.64,0.52,-2.40
"ex393",-0.84,-0.71,-0.44,0.88,1.06,0.31,0.36,1.71,-0.46,0.98,0.91,2.81,2.29,4.93,3.83,4.23,3.86,2.80,3.92,-0.16,-0.02,0.24,-0.44,1.42,-1.53,-1.05,0.70,0.37,0.24,0.70,2.20,-0.43,0.79,-0.20,1.61
"ex394",-0.23,0.19,1.25,-0.64,0.04,0.98,1.21,4.34,5.66,4.86,5.41,4.15,5.60,3.37,3.52,-0.81,1.08,0.01,1.99,0.24,-0.97,-2.51,1.29,-0.70,0.02,-0.25,-0.83,-1.03,1.28,0.59,-1.38,-0.42,-1.72,1.41,0.01
"ex395",0.31,1.52,1.36,4.27,3.20,4.68,6.76,4.03,0.54,2.93,0.90,0.55,0.15,1.12,2.51,1.36,0.98,-0.72,0.37,0.53,-1.05,-0.52,-0.42,-0.05,0.19,-0.59,-0.84,-0.32,-1.77,-0.61,-1.22,-1.80,-1.62,0.24,0.50
"ex396",0.68,-0.52,-0.55,0.46,2.16,2.61,3.65,3.55,2.69,0.93,2.13,1.59,3.20,1.55,5.02,1.48,0.32,-0.04,0.78,-0.29,0.53,0.54,-0.27,-0.40,-0.45,2.70,-1.02,-0.68,-1.87,0.67,0.17,0.07,1.68,-0.42,1.22
"ex397",-0.43,1.26,0.24,-0.37,1.36,1.11,1.80,0.17,-0.77,1.09,0.45,4.58,5.87,5.22,4.83,4.79,2.55,3.32,0.61,1.31,-0.45,-0.58,1.24,1.23,-1.61,-0.68,-1.05,-1.21,0.61,-0.44,0.18,1.00,-0.23,-0.13,1.41
"ex398",-1.37,0.01,-0.19,0.62,0.52,1.25,1.32,2.68,1.53,0.44,1.06,1.63,2.58,5.20,3.41,3.29,1.59,2.52,1.93,2.02,0.04,0.37,-0.41,-0.76,-0.02,0.31,-0.02,0.27,-0.07,-1.15,-0.27,-2.18,0.51,-0.20,-0.04
"ex399",1.17,-0.04,-0.40,-0.02,-1.82,0.39,1.52,0.04,1.37,3.41,3.32,3.40,2.84,3.65,4.04,4.09,3.75,3.80,1.34,-0.21,1.45,0.25,1.36,-1.54,-0.23,1.18,0.44,-0.20,-1.28,-0.99,-0.58,-1.68,-0.97,0.31,1.60
"ex400",-1.35,-0.03,1.02,2.17,1.66,1.26,4.41,4.50,5.21,4.69,3.88,2.96,1.88,0.85,1.91,-1.13,-0.66,0.94,-2.55,-2.44,1.20,0.22,1.00,-0.86,0.22,-1.03,0.36,1.48,-0.32,-0.71,0.67,0.58,-1.30,0.97,0.11
"ex401",-0.54,0.71,1.07,2.81,1.16,0.68,4.47,4.31,5.00,2.26,2.68,3.42,1.84,2.53,1.09,-0.03,0.76,-0.28,-0.14,0.18,-0.49,-1.53,-1.06,0.85,-1.13,1.65,0.05,0.60,0.64,0.41,-0.95,-0.54,1.23,0.41,1.49
"ex402",-0.30,2.33,1.65,0.34,1.34,5.26,3.30,3.87,5.94,3.47,4.12,4.11,1.38,1.02,0.47,0.24,-0.87,-1.54,-0.96,0.13,2.13,0.58,0.71,0.41,-0.81,-1.25,0.37,2.00,-0.03,0.96,0.79,-1.33,0.47,0.94,-1.16
"ex403",-2.81,1.76,0.19,3.51,1.16,2.95,3.49,5.18,5.22,3.05,3.29,0.84,2.07,0.95,0.60,0.48,-0.34,-1.39,0.32,-1.36,-0.86,0.22,-1.77,-0.83,-1.10,0.14,2.90,0.56,-0.59,0.70,-1.50,1.56,-0.57,-0.37,0.81
"ex404",-0.23,-0.23,0.83,1.60,1.84,0.97,2.32,4.12,0.49,1.74,0.65,2.33,1.66,2.76,3.22,3.53,2.78,2.41,0.28,0.63,0.78,-2.03,0.28,-0.03,0.97,-2.24,-1.87,1.57,-1.73,-0.30,-0.06,-0.02,0.11,0.24,1.74
"ex405",0.47,0.49,0.24,-1.22,-0.16,-0.90,0.20,0.40,-1.01,2.67,0.80,5.37,3.21,5.21,6.30,3.63,2.83,3.32,1.99,-0.42,0.06,0.15,0.35,-2.58,0.45,0.01,0.97,0.47,-0.65,0.91,0.18,-0.16,-1.66,-1.05,-1.63
"ex406",-0.52,1.28,-1.30,0.27,1.40,-0.88,1.70,-1.15,1.81,1.40,3.28,2.94,5.92,3.54,5.22,4.54,3.64,3.48,1.11,0.31,1.37,0.37,-0.19,-0.28,0.51,0.80,0.52,0.95,0.27,-0.08,0.04,0.14,-0.78,0.41,-0.42
"ex407",-1.11,1.41,0.84,2.39,1.68,2.86,4.16,4.89,3.78,3.69,2.73,1.92,-0.17,3.79,0.79,0.94,0.55,-0.44,-1.12,0.16,-0.44,-0.71,-0.17,2.11,-0.90,0.43,-1.56,1.51,-2.65,2.46,1.50,0.51,0.74,-0.04,0.60
"ex408",0.70,0.10,-0.55,-1.00,0.57,-0.52,-0.96,-0.61,0.76,0.13,1.43,2.61,3.80,5.92,6.25,5.47,2.98,1.99,3.36,-0.35,0.11,-0.56,0.34,-0.54,0.39,-1.19,0.80,0.96,2.24,-0.98,-0.94,0.18,0.15,-0.70,1.84
"ex409",-0.92,0.08,-0.18,-1.18,1.62,1.05,0.50,-0.66,1.25,0.37,3.98,2.90,4.48,3.33,5.67,4.27,2.87,1.56,3.87,0.49,0.34,-1.27,-0.63,-0.49,-0.96,-0.32,1.20,-1.04,0.02,0.27,1.39,-0.05,0.81,-0.80,-0.86
"ex410",1.44,-1.20,-0.48,0.03,-0.73,1.64,0.66,-0.02,-0.31,3.82,2.12,5.13,3.70,5.37,4.13,2.76,2.79,1.96,-0.28,-1.17,-0.66,0.16,1.56,0.58,-1.42,0.91,0.11,0.53,-1.41,-0.28,-0.90,1.08,0.29,0.38,1.13
"ex411",0.03,0.01,0.65,0.45,2.28,2.81,2.98,0.91,1.32,2.86,2.89,1.86,2.69,2.00,2.52,1.99,0.53,1.75,1.70,1.05,-0.53,-0.69,-0.97,1.66,-1.39,0.79,0.19,0.66,-0.53,0.05,0.50,0.71,-1.40,1.48,-1.39
"ex412",-0.62,0.06,2.47,2.24,3.36,3.78,5.86,2.70,2.79,3.04,2.19,0.66,0.37,-0.58,1.97,1.09,0.63,0.58,1.45,1.70,1.36,-0.29,-0.87,-1.02,0.58,-0.75,-0.79,-1.15,0.70,-0.53,0.28,-1.06,-0.01,0.32,-0.71
"ex413",0.20,0.98,1.33,-0.53,-0.57,-0.06,-1.22,0.12,1.51,3.42,2.31,3.09,2.91,4.09,5.85,5.01,4.84,1.65,2.72,0.76,1.35,0.65,-0.62,-2.35,-0.88,-0.66,-0.47,-0.61,-0.49,0.07,0.49,-1.24,-1.17,-0.30,-1.16
"ex414",-0.14,0.57,1.58,-0.75,-0.66,3.61,0.97,2.50,5.28,5.76,5.65,5.01,4.35,4.26,0.88,0.40,0.05,-0.06,1.27,-0.18,0.12,-0.44,-0.64,-0.18,0.21,0.16,1.32,-1.28,0.66,0.40,0.62,1.48,-0.62,0.67,-0.46
"ex415",-0.09,0.61,-0.32,0.27,1.09,1.36,0.21,-0.39,-0.23,1.41,2.93,1.11,2.88,5.30,5.55,4.29,5.99,2.03,1.17,1.32,0.42,-2.04,0.39,-1.14,-0.12,0.57,-1.24,0.73,0.77,0.56,-0.02,-1.63,0.73,0.93,-1.71
"ex416",-0.94,0.35,0.61,0.67,0.04,1.19,1.86,3.34,5.30,3.21,5.60,5.28,5.24,4.47,1.84,2.64,2.03,-1.21,0.08,-0.53,-0.77,-1.96,1.34,-1.39,0.85,-0.48,-0.09,-0.49,-0.02,-0.82,1.31,1.14,0.86,0.85,-0.54
"ex417",0.69,0.40,1.21,2.66,1.45,4.29,3.07,2.71,2.71,5.28,4.61,4.40,2.75,1.81,0.75,0.13,-1.37,1.08,-0.17,0.24,-0.80,-0.68,-0.73,1.03,-0.25,-1.63,0.30,-1.02,-1.37,0.93,0.55,-0.07,-1.10,-0.26,-0.16
"ex418",-1.12,-1.61,0.41,-0.25,1.76,2.17,1.95,0.63,1.65,2.63,1.07,0.94,2.49,2.93,6.07,3.38,3.99,0.96,0.40,-1.11,1.39,0.04,0.46,0.70,0.06,0.28,-0.37,0.00,-1.70,-1.60,-0.13,-0.99,0.46,-1.09,-1.12
"ex419",-0.20,-0.08,-0.61,-2.45,-1.47,0.42,1.42,-0.15,2.43,2.86,4.50,3.39,3.40,3.11,5.01,2.31,3.27,1.75,-0.01,0.40,0.19,0.50,0.36,2.73,-2.28,-0.07,-1.49,0.24,0.41,0.41,0.99,1.69,-0.07,0.04,0.35
"ex420",0.84,-1.32,-0.59,0.19,0.37,0.76,0.52,1.46,3.45,3.54,5.93,4.71,3.78,4.95,4.63,3.59,4.63,-0.20,-0.58,-0.25,-0.25,0.37,0.67,0.14,0.72,0.21,0.08,1.04,1.44,-1.80,0.04,1.19,-1.93,-1.56,-0.02
"ex421",0.48,1.16,0.65,1.76,1.27,3.59,2.91,3.80,1.83,2.86,1.37,1.72,1.74,0.60,1.62,1.02,1.65,2.35,0.60,0.69,2.30,-1.23,-1.36,-1.64,0.18,1.23,-1.21,1.15,0.97,-0.16,-1.03,-0.88,-1.91,-0.76,0.22
"ex422",-0.36,0.70,-0.14,1.69,0.50,2.56,3.98,2.25,4.27,4.51,4.79,4.36,2.56,2.94,0.94,0.11,-0.59,1.27,-0.52,0.56,-1.30,-0.20,0.96,-0.19,-0.50,0.72,-0.49,-0.39,-2.48,-1.33,1.79,-0.22,-0.17,-0.84,0.21
"ex423",1.29,0.52,0.87,0.38,3.41,5.21,4.95,3.52,4.24,2.09,2.73,1.21,-0.07,-0.59,-0.39,0.45,-0.01,-0.38,0.92,-0.98,0.81,-1.23,-0.71,0.04,0.16,-0.55,0.54,0.79,0.64,-0.95,0.17,-0.46,1.52,0.20,0.60
"ex424",0.15,-0.09,1.56,2.70,1.22,2.14,3.10,0.43,0.80,2.72,3.43,2.92,1.39,1.66,4.40,1.92,2.39,1.60,-0.51,-0.94,1.93,-0.26,-1.98,0.06,0.16,-0.15,-0.66,-0.95,-0.29,0.39,-0.70,0.74,0.84,1.26,-1.78
"ex425",-0.17,0.45,1.11,0.71,-0.02,-0.11,0.50,0.47,2.13,0.13,1.98,2.41,4.67,3.56,4.92,3.76,2.55,3.41,0.39,1.63,-0.55,0.09,-1.28,-0.51,0.11,-1.21,2.05,-0.05,-1.01,-1.74,0.07,-0.38,-1.39,-1.78,1.08
"ex426",0.23,-0.81,-0.77,-1.33,-0.60,1.04,0.43,-0.41,-0.77,2.07,5.13,4.06,3.34,3.94,3.66,4.13,2.86,2.97,1.16,-1.10,-0.24,-1.63,0.53,0.27,-0.13,-1.67,-1.85,-1.60,-0.65,2.40,-0.67,-2.20,-0.78,0.13,0.84
"ex427",0.04,-0.39,0.95,0.58,0.04,1.49,2.17,2.40,3.79,5.56,6.31,5.10,3.24,1.18,1.19,1.71,-0.10,-0.48,-0.07,0.68,0.39,0.99,1.20,-1.22,-2.24,0.31,-1.18,1.13,-0.21,0.75,1.12,-0.04,2.26,0.86,-1.89
"ex428",1.81,-1.20,-0.72,0.33,-0.79,2.56,2.34,4.64,4.40,4.21,6.38,4.85,3.47,3.33,1.62,1.39,0.75,0.32,-0.21,1.07,-1.58,-1.02,-0.29,-0.26,-0.67,0.06,-0.49,0.44,0.82,0.34,-0.73,0.26,1.05,-1.87,2.06
"ex429",-1.01,2.48,2.21,4.86,4.71,4.98,5.57,4.60,5.29,3.01,1.56,2.79,0.97,0.56,-1.21,0.11,0.61,1.87,0.52,1.38,0.69,-0.12,1.21,0.75,-0.59,-0.57,-0.73,2.15,-0.67,-2.08,0.52,0.04,0.46,-0.71,-0.27
"ex430",-0.29,1.60,1.70,2.74,3.53,2.84,4.22,4.60,2.53,1.92,2.21,3.79,1.63,3.06,1.51,2.49,-0.58,0.66,0.83,0.65,0.69,-1.07,0.30,1.76,0.08,0.54,0.30,-2.82,-2.17,0.51,0.33,0.73,0.88,-2.09,0.68
"ex431",1.97,0.14,0.61,-0.69,-1.38,0.62,1.12,1.09,0.18,1.13,3.48,1.92,5.27,6.33,5.93,4.67,4.10,3.11,1.02,0.16,-1.33,-0.96,-0.34,0.45,-0.37,-1.06,-0.70,-0.39,0.49,0.57,-0.62,-0.76,0.14,-0.84,-1.28
"ex432",0.32,0.65,0.87,0.63,1.68,1.33,1.36,-0.87,1.10,3.16,1.63,2.25,2.79,1.98,4.34,2.36,3.58,4.62,-0.13,1.21,-0.35,0.01,0.98,-1.47,1.87,0.48,-0.75,0.57,0.43,-0.57,1.97,1.33,-2.26,-0.25,-0.80
"ex433",-1.22,-0.20,0.60,0.59,-0.93,1.24,0.87,3.52,3.96,3.57,5.91,6.22,4.98,2.56,2.98,2.29,0.27,-1.56,0.99,-2.15,0.30,0.02,-0.23,-1.38,0.89,-0.88,0.63,-0.33,1.33,-0.05,1.07,0.55,-0.57,-0.14,-0.98
"ex434",-0.27,0.39,-0.66,1.68,0.98,-0.20,-0.95,0.73,0.53,0.43,0.85,3.21,4.45,4.80,4.74,3.87,4.14,1.16,1.65,-0.84,0.39,-1.07,-0.68,0.26,-0.66,-0.84,-2.02,0.10,-1.33,1.09,0.71,1.58,-1.42,0.38,-0.65
"ex435",-1.43,-0.40,-0.61,0.53,1.62,-1.22,-1.80,0.19,-0.54,2.39,0.97,2.33,3.94,5.37,5.95,6.63,5.19,3.05,3.23,0.98,0.37,-1.29,0.89,0.16,0.46,0.65,1.09,0.50,-1.10,1.79,0.36,0.86,0.40,2.43,-0.42
"ex436",-0.73,-0.66,0.94,-0.66,1.57,-0.13,1.40,1.27,1.37,-0.26,2.68,1.46,4.36,4.28,2.79,2.24,4.61,1.86,2.19,1.15,-0.87,0.70,0.56,1.24,1.71,2.61,-0.32,0.36,-1.22,0.32,-0.50,0.51,-0.87,-0.96,-0.08
"ex437",0.37,-1.85,1.66,1.48,-0.04,1.84,1.12,1.72,-0.12,1.41,3.42,4.31,2.24,2.24,5.08,5.86,2.81,0.35,2.71,-1.30,0.55,-1.56,1.79,-0.44,-0.57,0.93,-0.87,0.22,0.02,-0.69,0.14,-0.19,-0.07,-0.01,2.52
"ex438",-0.34,-0.62,1.80,2.97,1.03,4.15,2.57,3.29,2.80,1.94,2.31,2.09,3.41,4.03,3.59,2.15,1.12,2.37,2.14,1.48,-0.83,-0.77,0.27,-1.16,-0.25,-0.81,-1.90,2.30,1.24,1.15,0.39,-0.60,2.22,0.55,1.94
"ex439",0.57,-0.32,0.95,-0.50,-0.24,-1.01,0.43,1.63,0.55,2.21,4.44,5.27,4.60,5.02,4.88,5.29,2.51,2.64,1.16,0.79,-0.16,-0.37,0.53,0.30,-0.96,0.08,0.27,-0.44,1.57,-0.85,-0.85,1.71,-0.24,0.32,2.31
"ex440",0.22,-0.53,-1.53,-0.21,1.30,1.75,0.42,2.28,3.72,6.01,5.97,3.59,3.73,3.31,2.92,1.00,0.66,0.47,-1.45,0.73,-0.13,1.60,0.53,0.49,0.11,0.65,1.80,0.67,0.96,-0.27,-0.24,-0.16,-0.23,0.54,-0.44
"ex441",-0.86,2.10,1.32,-0.04,0.20,1.00,2.41,1.13,1.10,1.87,1.13,3.89,3.42,2.91,5.12,4.55,3.15,4.50,3.28,1.73,-0.14,-0.86,-0.84,-1.44,1.44,-0.22,-1.03,0.15,-1.96,1.09,0.47,0.32,1.26,-0.14,0.13
"ex442",-1.09,1.22,0.67,1.29,-2.05,0.98,0.85,-0.18,-1.21,0.68,1.98,3.75,3.87,4.78,3.35,5.59,4.65,3.27,1.26,1.03,-1.29,-0.63,-1.68,0.20,1.03,0.35,-0.60,0.35,-0.20,0.95,0.38,1.85,0.24,0.47,-0.25
"ex443",1.16,0.59,1.44,0.99,2.41,3.50,5.15,3.38,2.79,2.64,2.90,1.36,-0.34,0.60,0.51,1.04,2.12,1.04,-0.56,-0.89,-0.90,-0.30,1.02,-1.13,-1.28,0.99,1.55,0.44,1.16,0.94,0.02,1.16,-2.37,0.74,-1.08
"ex444",0.19,0.57,-0.84,-1.41,-0.53,-0.96,0.20,1.16,0.84,1.15,3.36,4.53,3.78,4.38,6.04,3.63,2.33,3.48,1.21,2.59,0.30,0.88,0.97,0.67,-1.00,-0.16,-1.63,-0.50,-1.15,-1.64,0.80,-1.51,0.71,0.27,-0.77
"ex445",-0.52,0.62,-0.60,0.72,-0.16,0.36,-0.36,1.92,0.24,0.29,1.54,3.59,3.77,4.84,7.34,4.17,4.22,2.39,0.83,0.41,1.01,0.56,-1.23,-0.36,-1.60,-0.29,-2.61,-0.94,-1.84,0.24,-0.10,0.66,-0.48,0.16,-0.41
"ex446",0.37,0.91,0.20,2.36,0.53,-0.00,0.44,1.63,0.21,2.75,2.36,3.05,2.73,4.14,4.56,4.39,2.05,3.93,-0.32,1.10,0.33,1.18,-0.60,-0.01,0.18,0.24,-0.70,0.63,-0.63,0.11,-0.14,0.52,-1.58,-0.60,1.19
"ex447",0.38,0.20,-0.89,-1.05,-1.79,0.36,1.40,0.86,0.76,3.56,2.31,4.46,4.19,3.76,5.77,2.44,3.49,1.72,1.84,-0.20,-0.84,-0.42,-0.22,1.13,1.02,-0.81,-0.91,-1.36,-0.50,1.84,-0.08,-0.73,0.73,-0.52,0.59
"ex448",-0.96,0.68,1.55,3.38,4.02,4.03,6.89,3.07,3.74,2.90,3.61,1.76,3.14,-1.97,-0.25,-0.53,0.77,0.92,-0.83,-0.41,0.81,0.92,-0.05,0.96,-0.47,0.87,0.09,0.17,1.18,0.74,-0.46,2.65,-0.12,0.48,-0.24
"ex449",0.23,2.00,1.09,2.61,2.81,2.56,5.20,4.45,4.63,4.19,5.06,2.32,0.89,-0.22,1.72,0.78,0.18,0.10,-0.61,-0.66,0.04,-1.09,-1.98,0.47,-1.31,-0.23,2.26,-0.55,0.50,-0.21,-0.06,0.48,0.18,-0.39,0.58
"ex450",1.35,1.14,-0.92,-0.25,1.04,0.30,0.59,0.04,1.58,3.30,5.18,4.03,3.90,4.62,4.66,2.93,2.72,-0.02,0.62,0.57,0.45,-0.27,-0.44,1.11,0.35,-0.20,-0.69,0.05,0.29,0.13,-1.40,0.28,0.29,-0.23,0.29
"ex451",-0.84,-0.83,2.19,2.11,3.53,4.13,5.51,4.63,4.18,4.38,4.90,3.52,1.83,0.95,-0.38,-0.49,0.08,-0.37,-0.22,0.19,-0.27,-1.27,1.33,-1.43,1.12,-0.22,-0.03,1.43,-0.84,-0.09,-0.44,-1.00,-1.46,-0.44,0.03
"ex452",-0.12,0.38,1.19,-1.06,0.21,0.79,2.10,2.47,1.08,0.16,0.47,1.82,3.92,3.49,5.14,5.03,2.63,2.79,1.24,1.30,0.37,-1.00,-0.37,-0.95,0.36,0.83,-0.97,0.62,0.21,-0.13,-0.79,-1.25,0.76,1.91,3.55
"ex453",0.80,-0.25,-0.09,-0.64,2.35,2.25,1.67,3.69,2.63,5.07,4.41,5.97,4.19,3.00,1.80,0.43,-1.11,-0.01,-1.38,0.07,0.42,0.54,0.31,-2.32,0.14,-0.37,-0.91,0.64,0.72,-1.78,0.37,0.89,0.28,0.03,1.20
"ex454",-1.55,0.35,-1.43,0.51,1.30,1.47,2.54,2.28,1.12,0.83,3.78,3.23,4.37,3.72,2.73,2.63,2.29,2.71,0.59,1.08,0.57,1.02,0.27,-1.00,-0.84,0.45,-0.11,-0.94,-0.67,-1.21,1.50,-0.48,0.28,-0.76,0.31
"ex455",0.86,-0.39,1.02,-2.10,1.66,1.03,1.21,1.15,3.44,2.64,5.36,2.26,5.42,2.90,3.47,0.49,-0.13,0.85,-0.25,-2.16,-0.65,-0.60,-0.93,-0.11,0.61,-0.16,1.10,-0.03,-1.27,1.14,0.48,-0.64,-0.21,-0.95,-1.16
"ex456",0.21,0.49,0.10,0.95,-0.43,0.15,0.94,2.08,-0.16,0.24,-0.43,3.08,4.66,3.45,4.59,3.35,-0.15,2.28,-0.62,-1.23,-0.12,0.61,0.07,-0.10,0.93,0.18,0.06,2.10,-0.49,0.51,-2.00,0.64,-1.19,0.58,1.69
"ex457",0.54,-0.25,0.97,1.18,-0.07,1.45,2.50,4.03,4.26,3.80,4.28,1.45,1.09,0.08,0.39,1.66,-0.73,-0.92,-1.15,1.15,-1.40,-0.32,1.43,0.81,-1.74,-0.48,0.02,-0.50,0.25,1.12,-0.74,1.87,-0.08,2.03,1.15
"ex458",-0.51,-0.15,2.73,3.14,4.85,4.68,4.29,4.63,3.84,2.89,2.17,2.87,0.12,1.15,-0.80,0.73,1.46,-1.68,0.40,-0.10,0.91,-2.75,0.97,-0.52,0.05,-1.14,1.20,1.10,0.13,-0.86,0.61,1.25,-0.05,-1.38,0.79
"ex459",0.93,-1.05,1.56,0.83,2.20,-0.60,0.99,1.79,3.80,2.70,3.90,5.80,4.72,4.81,2.27,5.04,1.87,-0.05,0.64,-0.17,1.22,-0.95,-0.21,-0.92,-1.41,-0.06,-1.04,-1.51,-0.97,-0.07,-0.09,0.29,-0.31,-0.34,-1.96
"ex460",0.96,-0.71,2.39,3.30,1.84,5.00,2.52,4.93,4.98,1.68,5.03,3.48,2.00,2.58,1.04,1.47,0.42,-0.55,1.49,-0.93,-1.41,-1.02,-0.28,1.14,0.46,0.03,-1.69,-0.09,0.63,1.03,0.35,0.56,1.68,-0.26,-1.48
"ex461",-0.67,0.67,-0.10,-2.02,-1.54,1.30,-0.18,0.36,1.25,1.72,3.48,4.08,4.19,4.38,3.46,3.85,3.65,2.70,2.04,-1.14,-0.99,0.91,-0.54,1.49,-0.67,0.27,0.64,0.72,-1.09,-1.63,0.99,-0.10,-0.62,1.30,0.19
"ex462",1.70,0.21,-0.20,0.67,0.17,-0.16,-1.07,0.93,1.10,0.51,2.10,1.89,4.42,6.57,5.87,5.40,3.05,0.52,1.32,0.24,0.39,-0.40,-1.36,0.53,1.56,0.75,-0.30,0.60,-0.05,-0.01,0.09,1.26,0.65,0.16,0.93
"ex463",0.57,0.13,0.62,1.98,2.22,2.60,2.70,0.76,0.67,2.14,1.87,2.68,2.66,3.44,3.04,1.87,3.62,1.31,1.15,-0.85,1.96,0.94,-1.00,1.24,0.42,1.78,-1.78,1.29,-1.12,-0.63,1.66,0.68,0.34,0.45,0.05
"ex464",0.12,-1.83,0.30,2.25,3.54,1.79,3.56,4.52,3.95,3.85,1.68,5.25,1.46,3.48,0.84,-0.98,-0.71,-0.45,0.73,2.56,2.33,0.75,0.52,-1.79,-1.35,-0.75,-2.75,-0.55,-1.17,1.74,-0.52,-0.50,1.09,0.50,2.24
"ex465",-0.16,0.00,-0.90,-0.84,-0.68,1.79,-0.02,2.78,3.15,5.36,3.45,5.94,5.38,4.04,2.55,1.75,0.29,1.81,0.12,0.89,1.21,-0.16,-0.14,0.87,2.07,0.70,-0.05,1.02,1.43,-0.15,-0.19,-1.51,-0.73,0.39,0.57
"ex466",-0.22,1.28,0.87,1.74,2.04,4.53,4.05,4.01,4.69,2.18,3.11,3.00,1.84,-1.29,0.98,1.49,-0.23,-1.62,0.72,-0.36,-0.08,-1.50,0.79,-0.77,1.31,0.93,0.36,1.06,0.25,-0.20,0.73,-0.42,-1.95,-0.09,-0.51
"ex467",-1.93,-0.21,1.27,2.99,2.94,3.13,3.09,3.83,3.30,2.24,2.01,0.99,1.19,1.18,1.14,0.93,-1.48,0.33,-0.43,-1.08,0.83,3.10,-0.56,0.54,-0.47,0.08,-1.56,-0.79,-0.43,1.72,0.73,0.51,1.68,-1.45,0.71
"ex468",-0.91,-0.23,1.15,0.65,1.88,1.15,0.48,0.99,2.91,1.40,2.01,2.11,5.14,1.83,5.69,2.94,3.51,0.65,-0.56,0.12,-0.72,0.37,0.11,-1.55,-1.65,0.08,0.04,0.13,-0.44,0.83,0.25,-0.58,0.03,0.03,-0.86
"ex469",-0.38,-0.14,0.54,2.63,2.11,3.56,4.17,2.85,2.70,4.25,4.04,1.51,-0.51,2.92,1.38,0.91,1.14,2.52,1.68,0.67,0.98,-0.40,-0.20,-0.62,-1.21,0.06,-0.88,-0.68,-1.35,0.28,-0.59,-1.95,0.48,0.89,1.11
"ex470",-0.94,1.28,-0.88,2.11,2.24,3.31,4.58,4.41,4.76,3.77,3.47,1.27,2.33,1.14,1.69,2.96,-0.09,0.71,-0.08,-1.31,-1.18,-1.32,0.51,-0.83,1.60,0.54,-0.81,-0.46,-1.48,-1.26,-0.94,0.55,-1.73,0.84,0.34
"ex471",-0.24,0.99,1.11,0.17,-1.19,0.33,-0.52,4.37,2.33,2.69,3.00,3.74,3.57,1.89,3.75,1.90,2.61,0.23,0.57,-0.76,-0.74,-1.00,-1.90,-0.83,2.17,-1.66,0.23,-0.88,0.54,2.32,1.18,1.37,-0.84,0.70,0.64
"ex472",-0.59,-0.24,1.46,0.95,1.17,1.58,1.79,1.20,0.87,3.30,2.44,-0.21,3.38,3.87,3.68,2.19,2.25,1.12,-0.43,1.58,-0.08,0.12,-0.37,0.04,0.36,-0.08,0.12,-0.53,0.87,1.03,-0.11,1.04,0.41,2.13,-2.08
"ex473",-0.87,1.04,4.18,0.11,0.23,-0.61,1.26,0.97,0.31,2.35,2.02,2.92,3.22,4.15,7.62,5.86,4.63,4.79,1.18,0.64,-0.91,-0.34,0.33,0.32,0.33,1.14,-0.98,0.37,-0.36,1.06,-1.77,-1.59,-1.91,-0.88,-0.14
"ex474",0.94,-1.23,0.78,0.28,-0.00,-0.59,1.07,0.26,0.71,-0.37,1.85,3.03,3.99,3.76,6.31,4.03,3.29,3.89,1.94,1.30,-1.61,-1.55,1.41,-0.11,0.50,-1.45,-0.08,-0.97,0.35,-0.28,1.08,1.81,0.25,0.86,-1.56
"ex475",0.23,-1.84,1.88,0.63,2.17,1.67,5.75,5.65,4.52,6.00,3.74,1.29,2.72,1.62,1.92,-0.43,0.67,-0.54,1.19,0.27,0.65,0.00,1.62,-0.17,0.48,0.22,1.06,2.08,0.72,0.03,0.25,-0.35,-0.44,-1.06,-0.55
"ex476",-0.08,-0.22,0.13,-0.78,0.17,0.67,2.92,2.78,3.50,4.58,6.88,3.16,2.77,3.95,1.73,2.58,0.13,0.87,-1.73,-0.24,1.45,2.05,1.41,-0.14,-1.77,-0.54,1.30,0.13,0.28,-0.46,-1.07,0.55,-0.97,-0.13,0.35
"ex477",-0.71,0.25,1.16,-0.43,1.15,0.52,0.14,-0.13,-0.94,1.06,2.88,2.81,4.04,5.09,5.85,4.43,4.33,1.18,1.30,1.16,0.49,-1.51,0.84,0.43,0.27,2.31,0.12,0.46,-1.63,-0.88,0.50,-0.41,0.73,0.86,0.55
"ex478",-1.61,-0.10,1.25,-0.76,2.00,2.47,0.10,1.81,0.23,2.38,2.03,2.93,3.18,3.35,3.39,3.03,1.87,2.44,1.37,0.55,-0.50,-0.46,1.37,-0.67,1.12,0.82,0.38,-0.28,0.37,1.03,-0.63,0.07,0.26,1.51,0.48
"ex479",-0.23,-0.13,1.16,-0.39,1.10,-0.27,0.11,-1.27,2.69,2.74,1.49,1.29,4.75,3.13,7.64,3.52,1.66,3.74,0.63,0.11,-0.26,1.50,1.72,1.34,0.10,-0.13,1.38,0.57,0.34,-0.25,0.20,-0.11,-0.27,1.10,-1.26
"ex480",-0.02,-0.05,-0.91,-0.55,1.84,0.70,0.32,1.55,2.14,2.62,3.19,4.54,4.14,3.37,4.38,1.14,1.24,2.24,-1.36,0.92,-0.13,-1.01,-0.37,-0.37,0.03,-0.03,-0.72,-0.51,-0.33,-1.04,-0.60,-2.14,1.96,-0.06,-1.53
"ex481",1.15,0.78,1.03,0.87,0.33,-0.84,1.85,0.39,1.00,1.58,3.51,3.70,4.51,5.51,7.29,4.99,4.50,2.85,2.27,2.08,0.57,0.53,-1.99,0.36,-0.82,-0.57,-0.46,1.65,-1.37,-0.41,0.15,0.06,0.01,1.31,0.71
"ex482",0.34,0.18,2.45,3.61,3.30,3.52,5.61,3.53,4.86,4.63,1.74,1.90,0.48,1.40,0.10,1.23,0.16,-1.13,1.32,0.01,0.03,1.74,-0.07,-0.42,-0.55,1.64,0.90,1.94,-1.88,0.72,-0.92,-0.54,-1.72,1.09,-0.15
"ex483",0.81,-0.96,0.36,0.96,1.02,-0.55,1.45,3.32,1.91,6.45,4.53,3.64,4.47,5.27,1.19,0.56,0.80,1.44,-0.56,0.30,1.03,-1.36,-0.49,0.32,0.72,-1.05,0.47,-0.04,-2.05,-0.70,0.90,-1.41,0.08,0.75,0.52
"ex484",-0.99,0.12,0.84,3.72,1.77,2.31,1.34,1.25,3.09,1.75,2.48,0.97,2.58,2.23,3.17,3.40,1.46,2.23,2.25,0.26,-0.10,-2.32,-1.12,-0.73,-0.20,0.67,-1.83,0.04,-0.44,1.89,0.89,-0.26,-1.12,0.99,-0.99
"ex485",0.18,-0.75,-1.16,2.92,0.68,2.74,4.94,4.89,3.18,4.46,4.52,3.09,2.35,2.05,1.73,0.18,-0.16,1.20,0.69,0.69,-0.78,-0.61,0.59,-0.60,0.51,-0.30,-0.45,-1.73,1.80,0.71,-0.49,0.63,1.43,1.65,0.13
"ex486",-0.15,-2.14,1.70,-0.70,2.48,0.61,0.36,0.26,-0.26,1.88,1.50,3.04,6.18,3.60,3.45,4.79,2.40,3.41,2.09,-0.83,1.28,0.70,0.61,1.46,1.11,1.04,1.24,1.07,-0.45,-1.06,0.61,0.32,-2.23,-0.06,-1.19
"ex487",0.69,-0.27,-0.02,-0.32,1.21,-1.56,-0.25,1.84,1.59,2.97,2.61,2.18,3.87,4.13,6.23,3.56,3.76,1.73,-0.86,-0.17,-0.40,-0.50,0.29,-1.84,0.43,-0.21,1.28,-0.39,-0.74,-0.39,0.39,0.22,2.38,1.54,-0.14
"ex488",-0.24,-0.51,-0.49,0.49,-1.53,-1.47,0.54,-1.17,2.53,2.42,1.29,2.88,2.69,4.40,5.39,4.39,4.59,4.54,1.39,-0.22,2.20,-0.86,-1.60,0.05,-0.75,2.17,0.36,-1.20,-0.50,-1.03,-1.55,1.62,0.75,0.11,0.34
"ex489",1.24,0.32,0.19,1.38,0.16,3.28,4.65,4.72,2.97,5.05,4.05,3.99,3.17,1.06,0.36,-0.23,-0.22,1.40,1.33,0.72,0.63,-0.05,0.45,0.68,-0.19,-1.13,-0.76,-0.01,0.81,0.30,1.81,0.15,0.89,0.31,1.11
"ex490",-0.17,0.75,0.30,-0.13,-0.76,0.19,0.72,2.03,1.55,4.87,4.66,4.33,2.48,3.02,3.65,1.98,1.59,0.76,0.48,-0.47,-0.57,-0.72,-0.96,0.54,0.26,-2.08,0.35,1.72,0.40,0.55,-0.27,-0.38,0.51,1.23,-0.42
"ex491",-0.22,0.18,0.47,0.48,1.92,1.00,1.90,3.02,2.90,4.50,3.62,4.90,4.27,2.80,2.38,2.33,1.45,1.48,-0.48,0.38,0.63,0.44,0.86,-1.57,0.39,-0.79,-0.95,-0.42,-0.99,0.65,0.75,0.84,-1.30,0.39,0.13
"ex492",-0.75,1.13,0.61,3.14,3.96,2.98,4.88,6.83,2.81,4.10,2.49,2.31,1.09,1.71,-1.98,2.38,0.26,-0.12,1.06,0.13,0.37,-1.37,-0.58,-1.09,-0.05,-0.43,-0.73,2.79,0.62,0.75,0.41,-0.72,-1.13,0.88,-1.88
"ex493",-0.00,0.79,2.56,1.63,1.10,3.29,0.53,0.83,0.89,-0.55,1.94,2.03,2.11,4.36,3.91,3.26,2.91,2.47,0.87,0.47,-0.21,0.68,2.26,0.63,1.03,0.21,0.09,0.96,-0.64,0.85,1.14,-1.65,-1.61,0.90,-0.40
"ex494",0.45,-1.28,0.44,1.54,1.02,0.38,2.79,2.55,1.36,0.46,2.11,3.95,2.51,3.43,5.13,3.89,3.34,3.58,2.12,-0.36,-1.40,0.31,0.30,0.91,0.24,-0.85,0.38,-1.02,0.64,1.29,2.31,0.74,-0.34,-0.17,0.18
"ex495",1.87,-0.28,-0.44,0.03,0.70,2.39,3.02,2.97,3.93,4.97,4.52,4.87,3.22,1.04,1.84,-0.72,0.06,0.31,-0.54,-1.09,-0.12,1.66,-0.96,-1.31,-0.80,0.56,1.48,-0.12,-0.52,-0.92,-0.81,-2.23,-0.59,-0.20,-1.39
"ex496",0.62,1.89,1.27,1.86,2.52,4.20,5.44,3.62,5.01,3.66,1.00,1.12,1.14,-0.08,-0.20,-0.49,-0.07,-0.84,2.43,-0.60,0.37,0.73,-0.50,-0.09,0.91,-1.05,1.00,-1.87,0.29,0.35,0.26,-0.55,0.06,-1.43,0.65
"ex497",-1.06,-0.35,2.03,1.87,1.06,1.58,3.20,2.70,1.93,5.86,5.19,5.39,2.48,1.03,1.95,-0.94,-0.03,-1.19,0.94,-1.28,2.32,-0.73,-1.15,-0.38,0.01,-1.83,0.33,0.07,0.42,1.39,0.64,0.63,0.29,0.40,-0.09
"ex498",-0.49,0.63,1.65,2.27,1.40,2.83,2.83,0.99,2.50,2.19,2.38,1.00,1.72,1.91,2.71,2.74,3.72,1.23,2.21,1.67,-0.53,1.11,-0.68,1.22,-1.86,-0.39,-0.31,-0.54,1.22,1.19,0.46,0.40,-0.25,0.38,-1.11
"ex499",0.61,0.69,-0.13,0.28,0.17,1.89,3.74,0.24,1.49,0.97,2.28,2.26,2.19,2.24,3.44,3.36,3.66,2.82,2.33,0.46,0.07,0.41,-0.41,-2.69,1.52,-0.52,-0.09,0.40,0.66,-1.20,-0.44,2.18,-1.66,1.92,1.50
"ex500",-1.14,2.11,1.05,2.98,2.25,2.34,5.44,3.42,3.56,3.60,1.21,2.34,1.17,0.10,0.68,3.72,0.28,0.77,2.20,1.29,0.82,-1.61,2.03,-0.35,2.27,2.53,-0.44,-1.66,0.17,-0.62,-0.76,0.31,-0.32,2.89,-2.37
"ex501",0.46,0.77,0.64,0.56,1.83,3.18,2.74,2.08,3.03,2.20,0.64,3.00,2.83,3.18,4.01,2.46,2.02,2.93,0.93,0.09,0.79,0.80,1.21,-0.85,-1.85,1.97,0.52,-1.76,1.15,-0.56,0.28,0.29,0.16,-0.07,0.11
"ex502",0.24,-0.71,0.72,-0.29,-1.23,0.39,-0.59,0.18,2.17,2.58,3.56,2.36,6.09,5.17,4.32,4.27,2.08,0.20,3.34,0.52,0.10,0.35,0.17,-2.55,-0.83,0.40,-1.19,-0.83,-2.35,0.08,1.78,-0.71,-0.65,-0.51,-0.90
"ex503",-1.38,1.00,1.28,3.64,2.69,4.59,7.26,4.55,1.97,1.47,2.63,2.78,1.27,0.48,0.51,1.77,2.15,-0.61,2.17,0.78,0.22,-2.04,-0.55,-1.19,0.03,0.23,1.26,1.22,-0.98,0.65,1.06,1.61,-1.95,-0.66,1.02
"ex504",0.52,1.03,-0.50,0.41,1.68,0.18,1.24,0.29,1.31,1.67,1.42,2.43,3.66,1.88,2.79,4.45,3.39,2.63,2.44,1.54,-0.03,-0.07,-0.06,-1.03,0.90,0.43,-0.22,1.06,0.82,1.28,-0.85,-0.85,-0.87,-0.12,1.32
"ex505",-1.76,0.34,1.05,1.15,1.83,1.68,3.99,2.26,0.86,1.77,0.82,1.09,2.60,2.14,2.45,3.41,1.77,1.89,1.80,0.43,0.60,3.71,-0.20,-0.41,-0.99,-1.12,0.84,0.79,-0.30,1.72,1.12,-1.05,-1.56,0.92,0.68
"ex506",1.09,-0.85,-0.12,-1.00,0.20,1.40,1.88,2.76,4.38,4.09,6.44,5.44,1.87,2.56,3.67,1.95,1.49,0.79,-0.85,1.56,2.64,-0.45,-0.16,0.60,-0.04,0.03,2.81,0.42,0.25,-0.13,0.51,-0.75,-0.00,-0.28,0.59
"ex507",0.06,0.18,0.03,2.02,1.15,4.48,5.05,2.98,5.26,3.84,4.02,3.54,2.75,2.08,0.55,-0.94,0.31,-1.35,1.17,0.10,1.03,1.93,-0.40,-0.73,0.56,-0.23,-0.84,-1.60,0.97,1.74,1.01,0.24,1.38,-0.17,-0.22
"ex508",0.96,1.01,1.53,0.74,1.27,3.49,2.98,2.72,3.70,5.21,4.01,2.67,1.49,1.52,2.02,-0.40,0.46,-0.43,-0.01,0.17,0.57,-0.62,-0.44,0.31,-0.74,-0.94,0.38,-0.76,-1.37,-0.02,0.13,-0.11,0.21,0.07,-0.36
"ex509",-0.63,1.51,1.87,1.72,3.13,4.61,8.24,4.69,2.71,4.61,2.17,4.21,0.72,0.23,1.77,1.73,-0.31,2.01,-0.38,1.05,-0.46,-0.95,-0.78,-0.50,0.57,-0.16,0.92,-1.02,-0.68,0.50,-0.68,-0.63,-0.37,-0.04,-1.29
"ex510",0.12,1.02,0.88,1.43,-0.29,1.00,2.58,2.91,3.75,5.79,4.21,3.44,3.77,0.91,1.75,1.26,-0.27,1.00,-1.09,-0.70,-0.10,-1.85,-1.57,-1.45,-0.39,0.09,2.89,-0.16,0.69,1.63,-1.48,0.83,0.76,-1.26,0.24
"ex511",0.32,0.44,-0.76,-0.17,-1.43,1.20,0.42,2.74,3.40,5.68,6.06,4.10,4.64,3.02,2.96,0.41,0.33,-1.62,0.11,-0.90,-1.16,-0.92,-1.02,0.30,-0.23,0.86,-0.89,-1.91,0.32,-0.28,0.52,-1.31,0.05,1.21,-1.52
"ex512",-2.29,-0.76,1.81,0.72,-0.38,1.55,0.98,1.77,3.24,4.60,3.72,1.77,3.85,2.28,3.40,3.33,1.64,1.26,1.62,0.90,-1.48,-0.24,-0.21,-1.82,-0.68,0.65,-0.17,1.24,0.99,0.59,0.37,-0.50,-0.69,0.12,-1.09
"ex513",-0.05,0.92,0.15,3.39,5.12,4.51,4.50,4.99,1.81,3.58,1.09,1.22,-0.19,1.12,0.68,0.61,0.93,-0.37,0.27,1.15,0.50,-0.47,-1.24,-1.22,0.28,-1.62,0.00,0.01,-1.10,1.83,0.95,-0.33,0.85,-0.14,-0.16
"ex514",-0.93,1.35,1.37,1.41,5.59,5.87,6.18,6.01,5.02,4.04,2.36,0.18,0.62,0.58,0.80,2.41,-0.58,0.63,0.71,-0.30,-0.50,0.22,1.93,0.12,-0.36,0.18,1.56,-0.70,-0.98,-1.49,0.31,0.22,0.97,1.13,-0.02
"ex515",-1.46,-0.61,1.43,0.99,0.88,1.18,1.56,2.31,2.41,0.79,3.33,1.25,3.67,4.33,4.54,4.21,2.48,2.45,1.57,2.15,0.91,-2.07,0.62,-2.17,0.18,-1.70,0.04,0.39,2.39,-0.32,-0.95,-1.36,0.61,-0.77,-1.45
"ex516",0.87,1.98,0.62,2.24,1.74,2.76,2.05,3.08,2.67,1.02,2.54,2.80,2.51,4.02,3.60,2.64,2.08,1.40,0.81,0.84,0.59,0.18,1.61,-1.18,2.18,0.90,-2.27,0.18,-1.84,2.12,-0.90,-1.12,1.88,-1.79,1.03
"ex517",1.34,-0.33,2.64,3.33,0.66,2.26,2.60,0.59,0.40,-0.57,2.15,2.60,1.71,4.51,3.73,5.44,3.34,2.38,1.48,1.44,0.07,-0.89,-0.61,-0.79,1.09,-0.38,-0.21,-0.98,-0.50,2.18,-1.91,-0.43,0.99,1.40,-0.10
"ex518",-0.33,0.04,0.55,-0.06,0.02,1.61,0.59,1.03,3.96,4.16,5.37,5.19,4.22,2.46,1.84,0.97,1.13,0.53,0.42,-0.50,0.06,0.07,-1.46,-1.24,-0.90,0.42,-0.02,0.77,-1.27,0.16,-0.74,0.57,0.03,-0.43,1.60
"ex519",0.33,1.20,-2.14,-0.11,-0.94,1.05,2.81,3.09,4.51,4.76,6.42,6.13,4.55,3.75,2.31,2.87,-0.53,1.44,1.08,-1.09,1.52,0.23,-0.19,0.32,-0.67,0.29,0.50,0.62,2.43,1.89,-0.39,0.44,0.09,-0.65,0.15
"ex520",1.24,0.91,0.25,0.57,-0.87,0.90,1.24,0.18,0.83,1.49,1.88,2.40,3.51,3.79,3.95,4.28,3.83,1.77,2.27,1.43,-0.11,-0.96,-0.04,-1.43,0.37,-1.54,-0.07,1.58,-0.68,-0.28,-0.74,0.75,0.38,0.67,1.64
"ex521",1.12,0.45,1.54,-0.26,-0.07,3.91,5.63,3.46,3.85,5.04,3.79,3.01,3.84,2.31,1.10,1.74,0.40,-0.17,-0.43,0.96,-1.11,-0.74,-0.75,0.16,0.18,1.46,2.74,-0.18,0.29,0.43,0.27,-0.02,2.87,-0.41,0.56
"ex522",1.02,-0.18,-0.24,0.42,-1.65,-0.62,0.49,0.15,1.61,0.74,0.93,3.73,3.58,4.28,6.08,3.78,4.11,2.54,2.43,1.44,0.45,-1.15,0.22,-0.89,0.17,-1.31,-0.99,0.55,-0.13,1.31,-1.17,0.71,0.66,-0.39,-0.44
"ex523",-1.01,2.99,2.77,2.77,2.37,3.73,7.60,3.98,4.84,2.90,3.60,0.41,1.53,1.31,1.24,-0.90,0.74,0.73,0.31,2.13,-1.51,0.55,1.44,-1.15,0.26,-0.79,-1.61,-1.57,-0.60,1.73,0.44,-0.20,-2.04,-1.82,-0.03
"ex524",-1.98,2.05,2.08,1.38,2.88,4.37,6.12,4.69,3.16,-0.09,3.15,1.73,0.23,0.52,3.52,0.90,0.45,0.35,-1.25,-0.21,0.32,-0.47,1.48,0.17,0.08,-0.35,0.68,0.39,0.40,0.77,-0.95,0.12,-0.66,0.39,0.63
"ex525",0.74,-0.39,-0.65,2.21,0.77,2.58,2.62,1.51,4.61,1.67,1.14,1.74,1.80,2.37,2.21,3.38,1.37,1.83,3.21,0.04,-0.26,0.31,1.01,0.16,1.56,0.24,0.01,0.15,-0.01,0.38,0.46,0.40,1.35,-0.38,0.19
"ex526",-0.23,0.31,0.32,-0.91,-0.28,1.55,0.66,0.38,0.74,0.99,3.01,4.03,4.13,5.46,6.92,5.52,2.79,2.92,2.79,1.45,1.42,-0.38,-1.33,0.49,-0.35,-0.37,-0.52,0.41,0.45,-0.56,1.09,0.75,0.15,2.72,1.12
"ex527",0.30,1.29,-0.55,0.63,-1.81,1.51,1.62,1.56,2.50,4.36,5.47,6.55,4.24,2.44,3.68,1.96,0.71,1.49,0.30,1.02,-0.26,1.37,-0.61,0.40,1.14,0.74,0.83,-0.33,-1.40,0.97,1.35,-0.31,-0.37,0.88,0.41
"ex528",-1.57,0.23,-2.69,0.07,0.41,-0.26,0.79,3.33,2.48,4.03,4.06,4.30,2.67,2.66,4.17,4.55,0.98,3.33,0.94,1.65,-0.83,1.10,0.09,0.63,-1.81,0.92,0.30,-0.50,-1.99,0.51,0.69,-0.72,1.12,1.49,-0.37
"ex529",-1.21,-0.35,2.68,1.10,4.59,3.95,5.15,4.28,3.75,2.47,3.11,0.61,1.72,2.79,1.93,0.26,0.11,-0.16,-0.61,0.15,0.85,-0.63,-0.44,-1.34,-0.64,-0.29,-1.63,0.83,2.61,-0.57,0.48,-1.29,-0.52,0.93,-0.57
"ex530",1.80,1.04,1.73,2.90,5.05,4.56,6.52,3.75,3.63,2.13,2.83,-0.32,0.20,0.18,-1.04,0.14,-0.72,-0.52,0.42,1.56,-1.94,1.37,0.02,2.09,0.03,-1.01,-1.23,-0.72,0.97,0.31,-0.34,-0.62,-1.42,0.19,0.32
"ex531",-1.58,-0.64,1.07,1.28,-0.47,0.01,2.25,2.61,2.42,4.30,3.35,3.31,5.72,1.57,3.41,1.30,2.46,0.25,-0.18,0.67,0.55,-0.10,1.01,0.96,-0.25,-0.19,1.64,-0.28,-0.69,0.89,-0.85,-1.62,0.90,-1.51,0.61
"ex532",1.59,0.21,0.84,1.74,0.90,3.65,4.40,3.95,2.70,5.59,5.56,4.05,1.90,0.67,1.15,0.47,1.44,0.62,-0.36,0.40,0.63,-0.36,1.24,-0.93,0.38,0.71,0.50,0.02,0.54,-0.22,-1.57,-1.31,0.40,-3.08,0.80
"ex533",-0.00,1.30,1.42,3.12,4.48,6.06,4.89,4.72,2.82,3.85,0.83,1.08,-0.93,0.93,1.70,1.20,-0.55,-0.31,0.15,-0.02,-0.18,0.73,-0.73,-0.01,1.39,0.14,0.24,-0.43,0.66,0.39,-0.18,0.16,2.10,1.02,1.30
"ex534",0.01,2.17,2.99,2.41,4.24,3.14,5.41,5.44,4.13,2.18,1.03,-0.54,0.95,0.46,0.34,-1.03,0.54,-1.53,-0.52,-0.51,-0.42,-0.74,-1.28,1.31,-1.68,-0.18,0.32,-2.48,0.23,0.09,1.23,-0.73,0.03,0.26,0.02
"ex535",0.31,1.68,-0.50,1.14,1.68,0.29,0.78,0.22,1.48,0.74,2.11,3.88,3.68,2.44,2.90,3.12,3.52,0.86,0.23,1.42,-0.31,-0.48,-0.34,0.62,0.31,0.08,-0.27,0.86,-0.85,0.95,2.58,-0.19,0.70,-0.02,-0.88
"ex536",0.59,0.36,1.28,4.31,3.10,5.85,6.60,5.98,5.17,2.79,1.96,2.00,0.94,0.28,1.93,-1.91,0.81,1.32,-1.04,1.24,-0.32,-1.35,1.50,1.86,1.62,0.57,-0.17,0.83,0.41,1.42,0.03,1.02,1.16,-0.04,1.12
"ex537",0.29,-0.66,0.10,0.95,0.43,0.61,-0.46,0.72,0.92,2.19,3.46,5.02,2.57,3.79,6.20,4.04,3.99,1.14,1.14,0.47,1.62,-0.09,-0.11,0.23,-0.27,0.16,1.47,-0.39,1.88,0.11,-1.71,-0.61,1.10,0.58,-0.38
"ex538",-1.17,0.04,0.21,1.17,-1.17,1.33,0.82,3.01,3.54,5.90,6.14,5.17,1.80,4.33,2.64,1.09,-0.64,-1.37,0.02,0.13,0.85,-0.17,-0.07,0.72,-1.31,-0.47,0.64,0.02,-0.88,-0.31,-1.88,-1.14,-0.95,0.89,-0.62
"ex539",0.13,1.90,0.72,-0.10,0.60,2.19,3.25,3.51,5.21,3.54,5.54,3.93,3.57,-0.02,1.17,0.53,-0.34,-0.35,-2.33,-0.51,-0.32,-0.93,1.34,1.32,-1.57,0.46,1.01,-0.62,1.79,0.09,-1.21,1.61,0.37,-2.50,-0.31
"ex540",0.09,-1.22,1.31,1.95,1.66,2.43,1.95,0.04,0.61,2.65,2.92,2.90,2.73,3.64,2.68,3.65,3.52,3.77,1.93,1.84,1.08,-1.70,1.55,0.39,0.29,-0.13,-1.01,0.52,-0.18,1.46,1.21,0.46,1.21,-0.77,-0.62
"ex541",-0.67,0.22,-0.97,1.09,0.94,2.33,0.47,1.08,3.19,2.73,4.72,4.66,3.47,5.98,3.20,3.72,4.04,0.55,2.47,-0.08,0.31,-0.24,-0.73,0.42,-0.65,-1.25,0.52,2.00,-0.02,-0.07,-2.19,1.26,1.68,1.88,-0.28
"ex542",2.79,0.14,-0.59,0.58,0.15,1.69,0.01,-0.09,1.64,1.26,1.65,2.77,2.51,5.22,4.34,6.20,4.09,3.98,2.80,0.64,1.71,-0.30,0.20,-0.42,1.18,-0.84,-0.95,-0.68,-0.06,-0.79,0.61,1.14,-0.11,-1.00,-0.00
"ex543",-0.94,0.59,-0.66,1.67,1.32,2.88,3.82,2.42,3.52,3.87,5.14,4.46,2.39,3.02,-0.19,0.11,-1.53,-0.93,0.10,-0.43,-0.66,-0.12,1.18,-0.32,-0.43,0.40,1.11,-0.25,-1.01,-0.50,0.54,0.07,-1.99,0.65,-0.05
"ex544",0.27,-1.69,1.20,1.44,2.26,2.60,3.10,3.32,2.84,4.14,5.34,1.69,2.28,2.35,1.14,1.78,0.06,-0.07,-0.08,0.80,0.08,1.58,0.08,-0.72,-0.22,1.52,-2.64,0.55,-1.01,1.07,-0.53,-0.68,-1.10,-0.59,0.01
"ex545",-0.58,1.12,3.14,1.44,3.46,6.20,6.22,5.16,4.06,3.67,2.64,0.21,0.88,-1.40,1.94,-0.18,1.04,1.23,0.17,0.00,-0.49,-0.35,-1.04,-0.10,-0.89,-1.36,-0.27,-0.45,0.59,0.44,-0.97,0.23,-0.40,-0.41,0.30
"ex546",-0.23,0.23,1.12,1.27,3.27,3.03,5.53,3.54,2.56,0.30,1.74,0.52,1.42,2.87,2.68,1.00,1.68,-0.00,1.24,0.32,1.52,0.39,0.56,1.11,0.59,0.40,-0.01,0.52,1.22,0.98,-0.59,1.10,1.11,0.88,0.36
"ex547",1.38,-0.11,-1.44,1.16,-1.36,1.24,1.66,0.84,4.25,4.75,3.63,3.87,2.73,3.79,4.02,1.75,1.55,3.61,0.25,1.89,-0.91,-0.59,-1.76,0.31,-0.98,-0.04,1.14,0.84,2.31,-0.74,-0.61,0.14,0.10,-1.64,0.03
"ex548",-0.63,0.73,0.24,2.53,2.76,4.07,5.19,5.15,7.04,4.02,6.87,3.05,3.53,2.24,1.16,1.42,-0.96,-0.35,1.30,1.04,-0.49,-0.78,0.46,-0.83,-0.82,-0.32,1.94,-0.59,0.18,1.07,-0.83,0.49,-0.98,1.54,1.55
"ex549",0.47,-0.62,-1.05,0.49,0.52,-0.34,-0.66,0.41,0.16,0.66,3.77,3.39,3.27,3.97,5.86,4.29,3.18,3.13,0.21,1.94,-0.07,0.93,-1.10,-0.80,1.50,0.34,-0.43,-0.06,0.44,-1.38,0.43,2.08,-0.74,0.82,-0.04
"ex550",0.61,-0.28,-0.53,0.80,1.93,-1.63,0.27,1.16,0.36,0.74,3.80,3.42,4.27,4.63,3.99,4.94,2.65,3.96,1.52,0.95,-0.09,0.09,0.03,-1.48,-1.97,-0.02,-1.12,-0.50,-0.11,0.65,-0.51,1.77,2.26,-0.97,2.08
"ex551",-0.53,-0.53,0.12,1.39,1.84,1.80,1.15,0.13,-0.10,3.54,0.44,3.72,2.85,3.48,3.16,4.55,0.75,1.85,1.45,-0.51,1.28,-0.02,-0.04,0.27,-0.37,-0.26,-1.23,-1.99,-0.62,-1.19,0.39,1.22,1.46,0.01,-0.39
"ex552",1.45,0.49,2.18,2.42,5.35,1.45,2.54,5.08,4.87,3.39,3.09,3.23,-0.05,1.71,1.66,-0.12,0.43,0.50,-0.82,-0.81,0.61,-1.95,0.49,0.00,1.71,-0.93,1.29,1.00,-2.36,0.81,-0.24,0.23,0.28,0.53,0.76
"ex553",0.03,-1.44,-0.51,1.73,-0.88,1.59,3.24,1.21,3.27,4.35,4.54,4.46,4.98,4.84,2.02,-0.38,1.32,-1.09,-0.44,-0.03,-1.04,3.02,-0.10,0.25,-0.37,-1.35,0.54,-0.07,1.54,-0.29,-1.82,-1.04,1.25,0.02,-0.58
"ex554",-0.20,0.78,0.21,2.93,2.50,4.78,3.58,5.05,4.30,4.48,1.79,3.49,-1.02,-0.04,-0.79,0.24,2.03,-0.11,-0.25,-0.51,1.10,-1.70,1.72,-1.15,-0.54,0.62,-0.42,-0.03,0.86,-0.99,0.78,-0.01,0.02,0.96,0.36
"ex555",1.52,0.82,0.14,-0.33,1.27,-1.58,1.99,3.32,5.23,4.66,4.34,4.75,4.64,2.80,1.46,1.71,0.39,-0.19,0.38,1.45,0.69,0.44,0.40,0.68,0.88,1.02,0.46,0.26,-0.29,-0.02,-1.87,1.02,-1.98,1.24,0.53
"ex556",-1.28,0.44,1.23,2.68,2.66,4.66,5.35,3.32,3.25,4.73,2.67,1.54,-0.11,1.59,0.45,3.23,-0.36,1.24,0.20,2.38,1.29,-0.72,-0.79,0.11,0.55,2.00,-0.07,0.83,-0.29,-0.71,-1.64,-2.04,-0.81,-0.56,-1.51
"ex557",1.56,1.04,1.99,1.50,4.09,4.80,5.17,6.17,5.13,2.90,2.00,0.71,-0.06,-0.02,-0.69,0.69,-0.15,0.05,1.02,-0.57,2.06,0.89,0.64,0.79,-0.24,-2.16,0.04,-0.45,0.58,1.77,-1.16,0.40,0.57,1.20,-1.07
"ex558",-1.71,0.38,0.82,-0.32,-0.89,-0.90,0.84,0.71,0.21,2.62,2.36,2.87,3.02,3.20,4.96,3.59,2.73,0.28,0.83,-0.04,-1.68,1.36,-0.31,0.49,-1.13,0.30,-0.80,0.31,-1.03,-1.89,-1.87,-0.61,-0.85,0.34,0.24
"ex559",0.08,0.10,0.34,3.42,2.15,3.12,3.77,0.84,2.86,2.14,1.56,1.87,2.01,2.27,3.98,2.74,0.70,-1.48,1.33,0.03,0.48,-1.32,-0.41,1.64,0.06,0.02,0.02,-1.77,-0.42,0.27,1.55,-0.77,0.68,-0.76,-1.13
"ex560",-0.27,0.23,1.65,0.92,1.78,1.08,1.16,2.50,2.62,2.75,5.82,3.61,4.18,1.71,4.17,1.43,0.84,-1.47,0.00,-0.60,0.09,-0.16,-0.64,-0.79,0.28,0.33,-0.83,0.01,-0.78,0.02,0.33,0.04,0.75,0.34,0.52
"ex561",-0.79,-0.09,1.13,-0.30,-0.13,0.70,2.10,-0.54,0.47,2.35,3.11,2.02,3.24,4.53,5.24,3.99,3.24,2.78,0.96,0.24,-0.83,1.34,1.47,-0.26,-1.16,-0.85,0.33,-2.04,0.85,1.39,-1.12,0.06,-0.96,0.10,-1.67
"ex562",-0.68,-1.81,-0.66,2.73,1.04,0.22,2.22,2.60,1.80,1.13,3.77,5.06,5.85,3.20,2.07,2.59,1.08,1.03,-0.87,2.20,0.05,0.22,-0.14,1.15,-0.77,0.30,0.55,-1.61,-0.50,-2.28,0.56,0.13,1.50,0.32,0.39
"ex563",1.21,-0.48,-1.70,1.12,0.34,-0.24,1.49,2.28,3.11,5.58,5.69,5.63,4.67,4.81,3.11,1.37,-0.20,0.33,-0.07,-0.61,-0.78,0.73,0.45,0.16,0.23,-0.60,-0.27,0.83,0.55,-0.19,-0.68,-0.61,-1.12,0.60,-1.91
"ex564",0.02,-0.54,-0.68,0.55,1.02,-0.86,2.55,0.30,3.19,4.25,2.61,3.64,1.68,3.56,3.84,4.25,3.16,0.72,-0.33,-0.77,1.55,1.57,-0.99,1.15,1.28,-0.83,-0.07,-0.51,0.30,0.28,1.99,-1.43,-0.73,1.26,-0.23
"ex565",0.49,0.69,2.15,0.63,-0.78,1.44,3.79,2.40,3.70,2.68,6.69,4.56,0.56,1.65,1.46,1.37,0.13,-0.22,1.08,-0.25,0.37,0.40,-0.42,0.08,0.37,0.34,0.68,0.03,0.18,-1.41,0.28,-0.66,0.90,-0.49,0.90
"ex566",0.77,-1.38,-1.00,1.02,-2.27,1.01,0.96,2.69,1.58,5.04,3.22,4.24,6.23,2.63,1.89,1.58,0.51,-0.43,-0.21,-1.89,-0.28,-0.70,-0.98,-0.60,-0.38,-0.25,0.29,-1.24,0.48,-0.04,0.96,-1.46,0.46,-1.50,-0.06
"ex567",1.26,-0.61,-1.25,-1.42,-0.71,-0.26,0.96,2.60,0.64,5.59,4.44,5.07,3.91,4.31,3.69,1.32,0.36,0.85,1.22,0.59,-0.04,-0.21,-1.13,-0.19,-0.88,-0.67,1.69,-0.49,0.47,0.33,-0.93,0.61,-0.60,1.01,0.37
"ex568",-0.73,-1.18,1.46,-0.57,0.32,1.40,-0.74,2.47,3.76,4.47,6.07,4.24,5.13,3.64,1.86,2.04,-1.45,0.68,2.67,0.36,-2.42,0.76,0.26,-0.40,1.32,2.30,-0.03,-0.00,-0.57,-0.54,-0.62,-0.94,0.23,-0.12,0.78
"ex569",0.82,0.18,0.63,1.62,0.45,0.25,0.45,-0.56,0.84,3.01,2.42,2.97,4.24,4.85,6.35,3.94,1.94,4.18,2.54,0.86,0.59,-1.11,0.26,0.69,-0.84,0.11,-0.17,0.57,-3.63,2.30,-0.15,0.85,-0.47,-0.66,-1.21
"ex570",-0.05,0.14,-1.12,-0.16,-1.50,1.16,1.14,1.57,2.15,2.29,1.27,1.33,2.43,3.83,3.73,3.44,3.48,2.55,1.73,2.26,-0.40,0.70,1.28,1.60,-0.25,1.16,0.16,-1.47,-0.59,0.13,0.64,-1.72,-0.03,-0.13,0.16
"ex571",0.12,-1.15,1.40,2.35,1.83,3.57,3.29,5.93,2.60,3.27,1.95,1.71,-0.28,3.53,1.51,2.55,2.57,1.13,-0.28,-0.23,-0.86,-0.04,0.05,0.96,0.24,0.73,0.42,2.35,-1.97,0.31,-0.57,0.81,-0.28,-0.70,-1.52
"ex572",-0.11,1.69,1.67,1.80,3.43,5.73,6.37,5.30,2.58,4.31,1.64,2.17,0.95,0.35,-1.91,-0.48,-0.04,1.97,-0.12,0.40,-0.72,0.49,0.30,1.35,-1.57,-0.01,-0.51,-0.36,0.03,-2.33,-1.96,0.67,1.68,1.27,-0.72
"ex573",-1.45,0.07,0.45,0.67,-0.67,-0.09,2.07,2.07,2.62,3.46,4.53,4.88,3.92,4.37,2.80,3.66,2.20,1.28,-0.22,0.40,-0.11,-1.07,0.59,-1.28,-1.21,-0.33,-1.56,0.06,0.42,1.35,1.08,0.27,-0.16,0.37,-0.12
"ex574",-0.58,2.24,0.58,0.25,3.01,2.12,4.77,2.17,2.67,1.55,0.16,2.58,2.62,2.16,3.17,2.01,1.93,-0.23,0.49,-0.42,0.46,0.66,-0.38,-0.22,-0.40,-1.00,-1.78,-0.84,0.47,-1.95,-1.15,-1.09,0.04,-0.07,-0.63
"ex575",1.43,0.86,0.62,2.06,0.76,1.62,2.97,3.40,4.41,4.30,5.96,5.01,2.11,1.82,1.88,1.92,0.22,0.59,-0.81,-1.15,0.44,-1.13,-2.22,0.13,-0.90,-0.32,0.97,-0.82,-1.24,0.08,-0.07,-1.14,0.77,0.86,-0.77
"ex576",-1.02,-0.73,-2.03,2.34,0.93,0.78,0.66,-0.04,0.29,1.74,0.87,2.37,4.51,5.41,6.04,5.07,5.26,3.83,2.81,0.38,0.54,-1.06,0.20,-0.41,1.13,-0.13,0.94,-1.15,-0.85,1.53,-1.21,-0.81,0.06,-1.72,-1.73
"ex577",-1.02,-0.05,0.65,3.82,3.47,3.57,5.41,3.48,5.89,3.37,1.74,0.95,0.41,0.95,1.41,-0.54,0.50,-1.44,1.30,-0.51,-0.11,-0.82,-1.92,-1.48,0.86,0.72,1.14,0.83,0.58,0.94,-0.15,0.17,-2.53,1.88,-0.91
"ex578",-0.80,1.22,-0.00,2.76,3.46,2.74,3.99,3.68,2.46,2.89,1.33,2.02,1.90,2.42,1.48,-0.46,1.69,2.13,1.23,-0.34,-0.62,0.07,0.16,0.45,-0.69,0.21,-0.37,0.58,-1.39,-0.14,-1.90,-0.01,-2.25,-1.56,0.72
"ex579",-0.84,-0.14,0.00,-0.06,2.22,1.28,0.22,0.46,-0.13,1.41,0.61,2.13,3.06,3.58,5.89,4.84,3.68,1.91,0.70,2.75,0.87,-0.73,-1.22,0.93,-0.21,0.99,0.31,-0.51,1.22,-0.88,2.35,1.11,0.96,0.35,1.22
"ex580",-0.24,1.11,2.43,1.74,2.02,3.57,5.99,5.59,3.95,5.88,3.29,4.15,0.94,0.45,2.53,2.46,-1.71,0.89,-0.78,-0.20,-1.28,-0.45,-0.84,1.09,1.77,0.83,0.83,-2.38,0.93,1.91,0.65,-0.16,0.23,1.41,-0.50
"ex581",0.69,0.22,0.58,1.06,2.71,1.77,3.87,4.46,2.72,4.04,4.09,4.47,3.45,1.85,0.09,-0.06,0.93,1.29,-0.11,-0.02,1.43,0.15,-0.86,0.34,0.78,0.26,1.67,-0.36,1.46,-0.17,-1.24,-1.61,1.96,1.61,0.01
"ex582",-0.28,-1.97,0.87,0.90,0.79,2.36,4.11,2.81,3.31,4.79,4.67,2.34,3.94,3.60,0.05,-0.16,0.21,0.81,0.57,0.02,0.24,-1.04,1.41,-0.87,-0.63,0.55,0.48,0.93,-0.64,-1.56,0.96,0.64,-0.49,-0.38,-1.28
"ex583",0.37,0.51,-0.89,-0.51,-0.53,-0.21,-1.09,0.30,0.02,1.28,3.97,3.36,5.63,4.32,3.92,4.79,2.68,2.39,0.46,1.02,-1.21,-0.28,0.43,-0.38,1.06,-1.07,-1.82,0.23,1.45,-0.99,-0.17,0.30,-1.77,-1.60,0.48
"ex584",-0.31,0.69,3.09,0.45,3.04,3.94,4.32,3.88,2.58,4.13,1.81,1.41,2.40,1.05,2.03,1.02,1.73,1.72,1.04,2.16,0.50,-1.08,0.11,-0.96,-1.82,0.53,0.84,-0.89,-0.09,0.60,-0.10,0.74,0.11,0.78,2.41
"ex585",0.51,-0.44,0.07,-0.49,-0.88,-0.19,0.10,1.73,1.03,0.39,1.93,3.55,4.56,6.40,4.62,3.74,4.58,2.10,2.07,-1.37,0.40,-0.98,-0.69,-0.72,0.40,2.16,-0.77,-2.61,0.36,-1.03,-1.18,1.30,-0.31,0.01,-0.11
"ex586",-1.84,0.07,0.95,-0.59,2.46,2.03,3.76,4.35,3.27,2.93,4.38,3.63,-0.38,1.49,1.72,0.83,-0.58,0.78,-0.59,-0.34,0.61,-0.33,-0.99,1.25,0.40,-0.51,-1.83,0.46,0.24,1.03,-0.66,1.52,1.03,0.56,-1.06
"ex587",0.31,-0.11,0.38,1.97,1.62,2.70,2.99,3.35,1.99,2.01,0.92,2.04,4.07,1.60,5.01,0.59,1.44,0.53,-0.06,1.27,0.46,1.41,1.11,-0.48,-1.05,-0.03,1.36,-0.39,-0.34,0.59,0.61,-0.11,2.08,0.26,-1.44
"ex588",-0.44,-0.28,-1.13,0.05,0.12,-1.73,0.57,-1.21,-0.40,-0.18,4.37,3.96,2.33,4.15,6.41,5.10,3.92,3.35,2.97,1.80,-0.40,-0.83,-2.30,-0.17,1.23,0.13,-0.61,0.88,0.82,0.09,-0.96,-1.84,1.08,-1.29,1.23
"ex589",1.20,-0.71,0.12,0.60,2.64,1.88,0.74,0.54,-1.27,2.80,1.35,2.17,3.52,3.86,4.52,2.39,2.59,1.56,1.76,0.79,-1.76,0.50,0.11,0.78,-1.18,-0.78,-0.14,0.00,0.86,-1.18,-1.37,-0.19,-0.41,0.81,1.42
"ex590",-0.13,0.24,1.44,1.23,1.53,-0.46,0.72,1.25,1.19,3.63,1.91,2.43,1.42,2.69,6.08,2.96,3.52,4.96,0.45,-0.11,-0.44,0.45,-0.37,-0.88,0.72,-0.34,-0.66,-0.23,-1.64,0.00,-0.33,0.37,-1.03,0.58,0.30
"ex591",0.22,-0.42,0.54,3.00,3.06,3.72,5.25,3.15,4.18,2.80,2.49,0.49,1.03,-0.74,1.03,2.56,0.85,1.23,1.44,-0.89,-0.88,1.09,-0.66,-0.38,-1.72,-0.51,1.61,0.95,1.64,1.14,-0.98,1.39,-0.42,-1.83,-0.35
"ex592",0.31,-1.03,-1.65,-0.13,1.98,1.51,4.19,3.39,4.55,3.45,6.83,4.80,3.10,2.87,2.20,1.58,0.37,0.91,0.08,0.66,0.05,1.09,-0.38,-0.56,-0.19,1.57,-0.05,2.30,-1.42,-0.13,-1.25,0.01,-1.20,0.14,0.38
"ex593",-0.45,0.22,0.82,1.07,0.58,2.67,2.58,2.62,2.54,4.49,4.70,3.62,1.53,2.40,-0.84,2.88,2.43,0.33,1.60,1.03,-1.54,0.11,0.85,0.38,1.83,0.98,-0.73,0.20,1.70,-0.87,1.71,-0.27,-1.33,-0.93,0.34
"ex594",-1.80,-0.06,-1.41,0.56,-1.14,2.89,3.18,3.68,4.75,4.97,5.56,5.59,3.94,3.37,2.88,0.52,0.47,0.86,1.06,-0.55,0.41,-0.64,1.46,1.56,-1.85,-1.25,-1.66,-1.17,-0.88,-0.18,0.22,1.17,0.99,-0.97,-1.34
"ex595",-1.33,-0.62,0.88,0.81,-1.99,2.39,3.03,3.17,3.64,2.65,6.59,4.91,3.14,1.63,2.00,1.22,0.75,1.19,-0.77,0.17,1.48,1.81,0.55,0.19,-0.31,-0.75,0.44,-0.69,-2.21,-0.46,-0.37,-2.13,1.13,-0.44,0.53
"ex596",0.51,0.99,-0.44,1.92,1.00,3.31,3.72,2.15,4.08,5.54,6.19,3.00,4.11,2.48,2.50,-0.91,-1.05,0.61,-0.82,0.35,-0.59,-0.95,0.41,0.97,0.32,0.52,0.13,0.89,-0.93,-0.72,1.06,1.54,2.00,-1.56,0.66
"ex597",-1.18,-0.78,0.29,4.46,2.29,4.21,6.73,4.73,3.21,3.07,1.91,4.11,-0.31,1.43,0.12,0.64,-0.07,0.63,-0.06,0.14,-0.52,0.96,-1.47,0.49,-1.36,0.23,-1.68,1.57,-0.75,1.58,-1.95,-1.61,1.56,-0.69,-1.00
"ex598",-0.54,-0.64,0.45,0.14,-0.60,1.45,3.15,2.23,2.60,4.83,3.50,3.82,3.21,5.64,0.78,0.01,-0.01,0.88,1.14,1.95,0.17,-1.64,0.35,-0.02,2.64,1.68,1.67,1.18,-0.95,0.71,0.42,-1.13,0.33,-1.46,1.79
"ex599",0.77,-2.31,-1.06,0.66,1.06,-0.41,0.63,-1.68,0.18,2.89,2.38,4.48,4.06,4.46,5.63,4.13,4.40,2.11,1.67,0.98,0.75,0.54,-0.12,0.17,-1.34,-1.18,-0.10,0.79,-0.03,0.03,-0.60,-0.74,-0.13,0.48,-1.39
"ex600",-1.29,0.70,2.43,1.93,1.72,-0.33,3.39,1.13,2.00,1.48,1.45,2.43,0.51,4.42,4.89,1.88,1.65,0.70,0.52,-0.01,-0.64,1.34,-0.35,0.39,0.18,1.09,-0.13,-0.43,0.10,-0.29,-0.40,0.14,-0.82,0.64,0.05
"ex601",-0.12,1.22,-0.82,0.35,1.54,1.99,4.19,4.01,4.96,4.03,4.81,3.68,0.45,2.72,0.38,-0.66,-0.76,0.12,-0.87,-0.47,1.46,-0.29,0.66,-0.81,-0.11,-0.12,-0.92,-0.65,-0.40,0.44,1.50,-1.17,-0.52,0.86,1.38
"ex602",0.89,0.20,1.80,1.42,1.22,2.43,4.55,4.37,1.06,2.17,2.27,2.57,3.02,2.78,2.56,-0.27,0.95,2.03,0.63,0.39,0.00,0.46,0.24,0.38,-0.57,0.15,-0.38,0.61,0.65,-0.39,0.51,-0.39,-0.45,0.44,-0.02
"ex603",-0.28,-1.00,0.50,2.52,1.56,2.41,4.22,3.59,4.68,4.28,3.21,2.90,0.88,2.49,0.80,-0.09,1.75,1.08,-0.95,0.90,-0.88,-0.60,-1.62,-0.31,-0.84,-1.58,0.09,0.26,1.24,0.23,-0.74,0.02,-1.89,0.04,-0.40
"ex604",-0.09,-0.73,0.17,0.16,-0.76,-1.18,-0.14,-0.71,0.08,0.39,2.18,1.33,2.56,7.43,6.12,6.67,5.01,3.82,2.48,0.50,0.56,0.19,-0.68,0.76,-0.15,0.49,1.91,0.18,-0.79,-1.22,1.00,-1.69,0.41,1.52,-1.09
"ex605",0.28,1.39,1.33,-0.91,-0.15,0.56,0.37,1.60,-0.02,-1.48,1.53,3.49,2.23,3.87,5.17,4.01,4.11,1.86,3.02,1.63,0.55,0.70,0.16,2.97,-1.02,0.27,0.76,-0.95,0.34,-0.30,0.41,0.76,0.45,1.16,-0.98
"ex606",-0.60,0.03,0.94,0.40,1.78,2.25,3.67,2.41,3.66,3.89,3.28,4.05,3.43,1.02,1.17,1.22,-0.36,1.10,0.53,-1.20,-0.02,-0.00,-0.67,0.47,0.30,0.80,-0.06,0.44,-0.69,0.68,-1.14,1.78,0.97,-0.20,0.73
"ex607",0.69,-0.94,1.68,0.64,0.68,-0.46,1.58,2.71,3.30,3.30,5.84,4.26,6.71,1.60,3.03,1.07,1.95,-1.55,-0.26,1.43,-0.72,0.21,-0.19,0.06,0.98,-0.41,1.75,0.93,-0.39,-0.17,1.14,-0.62,0.41,-0.12,-0.97
"ex608",0.07,-0.68,-1.71,-0.02,0.41,-0.56,0.82,-0.10,1.90,2.66,3.48,4.65,4.89,3.95,5.47,3.76,3.59,0.76,2.24,0.97,-0.08,-0.29,-0.16,0.59,0.01,0.40,0.76,0.05,1.01,-0.43,1.84,0.18,-0.57,-0.79,0.31
"ex609",1.92,0.90,0.70,0.55,-0.00,-0.33,1.33,1.85,3.64,4.18,4.53,4.45,5.63,2.98,1.78,1.80,-0.51,1.92,-0.96,-0.06,-3.48,-0.76,0.29,-0.50,-0.40,-0.10,0.92,-0.56,2.92,0.88,0.08,0.44,0.41,0.54,-2.52
"ex610",-0.11,-0.84,-0.57,-0.89,-1.10,2.40,0.11,0.59,0.99,0.81,0.56,1.35,1.96,4.78,4.33,4.67,2.07,1.74,1.93,-1.73,-0.91,0.23,-0.26,-0.40,0.89,0.61,-0.26,0.46,0.30,-0.63,0.66,1.10,-1.05,2.27,0.63
"ex611",0.83,0.03,1.13,0.36,2.71,2.41,3.72,2.71,1.84,1.62,1.14,1.07,2.20,2.94,2.18,4.01,3.57,2.74,0.09,0.38,0.19,-0.64,0.93,2.41,-0.81,-0.04,0.37,0.10,0.17,0.32,-0.83,-0.28,-0.04,-0.38,-1.43
"ex612",-1.23,0.34,-0.56,-2.10,-1.68,-0.81,0.49,0.79,0.51,3.86,5.13,3.13,4.26,4.49,4.55,2.77,-0.53,0.69,0.34,1.08,1.75,-0.61,-0.28,-0.08,-1.16,-0.10,-0.38,-1.09,0.41,0.52,0.46,0.69,-1.15,-0.36,0.95
"ex613",-2.24,-0.62,1.49,1.99,3.17,4.18,5.23,3.06,2.67,1.73,0.84,3.31,2.70,0.40,1.90,2.40,1.82,0.83,0.67,-2.36,0.70,0.73,-0.46,1.09,-0.56,0.36,-1.06,-0.91,1.68,-0.24,-0.77,1.44,1.63,0.69,-0.28
"ex614",-0.74,1.58,1.39,3.30,2.67,4.42,4.23,3.78,4.76,4.00,4.50,0.43,0.15,0.68,0.93,0.36,1.61,-0.55,1.22,-0.40,0.82,0.66,-0.93,1.02,0.77,0.49,-1.92,0.53,-0.26,1.22,0.48,-0.21,-0.36,-0.62,-0.93
"ex615",0.09,1.20,1.16,2.34,3.12,1.89,2.45,3.74,0.22,2.96,0.50,3.43,2.55,2.86,1.51,3.87,4.07,1.54,0.89,1.92,-0.12,0.41,1.02,-0.71,0.32,-0.75,-0.42,0.88,1.03,-0.05,0.16,-0.72,0.66,-0.58,-0.14
"ex616",-1.15,0.11,-1.88,-0.02,-1.61,-0.06,1.41,2.72,2.69,3.32,5.90,3.30,3.78,4.71,3.97,2.38,1.20,1.77,1.76,0.02,-0.82,1.21,1.43,-0.10,0.69,-2.16,-1.74,-0.37,-0.03,0.18,-0.60,0.51,-0.48,-0.34,-0.08
"ex617",-0.54,0.63,-0.33,0.50,2.03,2.76,0.47,1.33,1.41,1.96,0.21,3.17,3.04,5.28,4.55,3.92,2.64,1.55,0.46,1.78,0.07,-1.30,-0.10,1.03,-0.41,2.42,-0.20,-0.25,0.25,-0.42,0.64,-1.14,-0.46,0.53,-1.26
"ex618",0.14,0.53,1.98,3.96,3.06,2.82,5.96,4.81,3.43,2.29,0.70,0.02,-0.28,0.11,0.97,2.30,0.84,1.54,-0.25,-0.39,-1.06,-0.06,-1.49,1.13,0.06,-0.89,-1.13,0.38,0.52,-0.40,-0.22,-0.12,0.39,-0.33,0.56
"ex619",-1.34,2.16,0.72,2.10,0.84,4.96,5.33,4.77,4.74,1.01,3.70,1.44,2.75,1.89,0.38,-0.62,-0.44,-0.68,1.35,1.09,0.55,1.00,-0.16,-0.88,-0.02,0.04,0.35,0.44,-1.33,-1.98,0.36,0.31,0.73,0.08,-0.05
"ex620",0.23,-0.36,1.06,-0.69,1.52,1.73,2.03,2.35,3.34,4.36,4.53,5.36,4.87,2.87,2.27,2.87,1.11,1.14,-0.31,-0.66,0.95,0.26,-0.87,0.29,1.62,-0.11,-2.02,-1.51,0.70,-1.81,-0.24,1.73,-1.35,-0.11,-1.36
"ex621",-0.05,0.70,1.05,3.65,5.14,6.84,6.04,3.43,3.05,3.92,1.62,-0.23,0.33,1.18,1.36,0.84,0.29,0.58,-0.14,0.22,-0.13,0.36,-1.08,1.44,1.68,0.20,-0.97,-0.10,0.33,-0.01,-0.15,-0.42,0.43,-0.14,0.79
"ex622",-0.01,0.22,0.38,0.25,1.63,-0.89,0.79,0.29,-0.97,2.57,2.50,4.34,2.51,2.74,6.13,4.00,3.52,3.27,0.91,2.23,0.39,-2.15,1.27,0.17,-1.08,1.89,-0.50,-0.25,-0.68,-1.42,0.69,-0.63,-0.53,0.32,0.92
"ex623",0.41,0.84,2.08,3.50,4.31,3.88,6.41,4.82,3.67,3.06,2.26,2.24,0.40,2.40,0.86,-1.30,-0.08,0.98,-0.78,0.76,0.81,0.24,1.19,-0.71,-0.53,0.08,2.09,-1.20,0.81,-2.56,-0.10,1.02,2.13,0.29,-0.71
"ex624",0.28,1.13,0.48,2.23,2.85,4.79,5.24,3.43,3.06,3.01,1.96,1.81,2.81,2.32,1.42,0.44,0.76,0.27,0.22,0.52,-1.82,0.03,0.49,-0.47,-0.39,-1.10,-0.47,-1.09,-0.06,1.23,-1.58,0.20,0.73,-1.46,-1.43
"ex625",-0.46,0.98,-0.19,1.33,-0.10,2.10,2.82,0.87,1.52,2.73,1.85,5.11,2.72,2.12,4.88,2.52,3.07,2.32,0.18,0.83,-0.65,0.10,0.92,-0.77,0.43,0.47,0.65,1.01,-0.44,-0.05,-1.84,-1.44,1.61,-1.25,1.36
"ex626",-0.82,-1.33,1.48,1.42,1.56,2.52,2.38,4.94,3.62,3.57,3.33,3.25,2.42,1.87,1.19,2.23,0.18,-1.32,-3.03,-0.48,-0.47,-0.49,0.98,0.15,0.92,3.56,-2.47,0.90,-0.38,-0.68,1.11,0.33,0.45,0.19,0.89
"ex627",0.12,-0.52,0.39,-0.22,-0.52,-0.17,-0.38,-0.36,0.02,1.77,0.31,2.98,2.12,4.07,4.61,3.54,3.08,3.47,2.04,-1.38,0.59,-0.20,0.90,-0.69,0.36,0.41,0.39,-1.22,-1.86,1.22,-0.27,0.42,1.33,-0.67,0.32
"ex628",-0.31,-0.54,-0.55,0.62,-0.45,1.14,-0.04,-0.84,-0.00,1.38,1.26,3.41,4.15,5.78,6.44,2.57,3.41,1.91,1.61,1.06,0.33,-0.19,-0.65,-0.18,0.51,0.31,0.86,-0.23,-0.65,0.41,0.17,-1.59,0.73,1.10,0.44
"ex629",0.44,-1.08,0.06,-0.02,0.60,-0.46,0.29,2.56,2.61,3.87,4.33,4.57,2.13,5.44,4.75,1.39,2.45,1.51,-0.07,-0.18,-0.59,0.43,-0.49,-0.43,-1.18,0.84,-0.38,-3.00,0.23,0.31,0.14,-0.41,-0.73,-2.06,0.86
"ex630",1.44,1.12,3.05,1.64,3.87,2.23,4.75,4.64,3.07,0.04,0.41,0.97,2.83,0.74,1.07,1.69,1.52,0.26,1.68,0.38,0.68,-1.85,-0.26,1.47,1.04,-0.11,0.05,0.53,1.41,0.63,-0.66,0.76,-0.71,2.41,1.02
"ex631",-1.03,0.80,0.41,4.05,2.88,4.62,5.19,3.21,2.39,1.85,0.74,1.52,2.03,1.51,0.29,1.68,1.98,0.39,0.42,-1.23,-1.14,0.13,-0.81,0.10,-0.85,0.03,0.77,0.25,-0.02,1.07,-0.98,-0.51,-1.01,-0.27,-0.31
"ex632",-0.86,0.22,1.13,4.43,2.97,3.62,5.13,5.56,2.72,2.86,3.53,1.97,-1.66,0.58,0.64,0.66,-1.79,0.93,0.64,-0.63,-2.29,1.10,-1.37,-0.63,0.90,0.55,-0.88,0.45,-0.52,0.20,0.28,-0.35,0.26,0.56,1.69
"ex633",-0.10,-0.04,0.65,3.02,3.33,1.97,3.55,2.11,1.97,2.68,2.46,1.28,1.31,1.70,3.40,3.42,3.67,0.68,0.31,-0.81,-0.16,0.24,0.67,-0.46,-1.75,0.40,-1.65,-0.37,1.19,1.73,-0.26,0.24,0.47,0.65,0.34
"ex634",2.59,0.22,-0.10,0.84,-0.57,0.77,1.04,-0.67,4.07,2.06,3.63,5.09,4.28,5.22,4.53,3.49,3.17,3.09,2.22,0.93,-1.06,0.17,-0.16,-0.71,0.28,0.63,1.99,1.06,-0.12,-1.09,0.75,-0.21,0.15,1.07,1.42
"ex635",1.68,-0.24,0.36,-2.92,-0.30,0.88,0.02,2.75,1.93,4.28,5.30,5.27,5.84,1.67,4.99,2.56,1.90,2.27,2.53,-0.04,-0.75,1.40,-0.31,1.43,0.68,1.39,-0.44,-0.06,-0.14,0.91,0.94,-0.07,-0.17,-0.84,-1.33
"ex636",-0.14,1.14,-0.80,0.64,-0.08,0.52,3.19,2.30,3.83,4.01,4.95,4.58,2.34,1.20,1.88,1.88,0.67,1.00,-0.52,-0.74,-0.94,-1.40,0.52,0.31,0.36,-0.25,-1.90,0.57,-0.24,0.27,-0.80,1.58,1.17,0.55,1.03
"ex637",0.62,-1.01,0.84,0.37,-0.25,1.04,0.68,1.31,-0.08,1.01,2.82,3.64,4.84,4.63,4.84,4.03,3.29,2.36,2.96,0.67,-0.69,0.33,0.33,0.62,-0.67,-0.90,0.59,-0.55,-0.59,-0.65,-0.55,0.75,0.12,-1.69,-0.25
"ex638",1.04,-0.85,-1.24,0.43,-1.17,-2.18,0.43,0.50,-1.53,0.89,2.67,3.40,5.03,6.09,3.41,2.27,3.65,2.58,2.04,0.73,-0.57,-2.06,-1.02,0.04,0.17,-0.10,-0.36,-1.87,-1.73,0.75,0.28,0.60,-0.59,-0.31,1.21
"ex639",0.10,0.60,1.45,0.26,1.27,0.75,2.66,5.00,2.45,2.70,2.68,5.05,2.82,2.03,-1.09,0.09,-1.47,0.08,1.30,-1.36,0.98,-0.88,2.36,0.43,-0.97,1.43,-1.17,0.32,0.70,-0.28,0.79,-0.45,0.11,-1.55,-0.88
"ex640",0.26,-0.16,0.16,-0.19,-1.58,-0.29,2.94,0.60,4.39,2.74,5.30,4.21,4.70,4.62,3.09,2.12,1.49,0.83,-0.52,-1.53,0.52,-1.75,1.91,0.69,-0.89,1.48,0.60,-0.62,1.79,-0.20,0.62,0.53,-0.54,-0.95,-1.18
"ex641",0.29,1.17,0.71,1.82,-0.40,2.92,2.74,3.97,3.99,4.50,5.26,3.67,2.19,1.32,3.70,1.84,-0.71,-1.33,-0.22,0.07,0.90,0.82,0.79,0.14,0.45,0.12,-1.24,-0.95,-0.16,2.81,-0.48,-0.59,-0.90,1.43,1.78
"ex642",-2.10,-1.23,0.88,1.03,0.86,2.22,4.06,1.25,-0.41,0.81,2.65,3.47,2.79,0.77,3.85,3.50,3.96,2.18,0.62,-0.38,0.13,-0.78,-1.30,-0.67,-0.54,-0.09,-0.02,1.65,-0.32,0.46,-0.51,-0.41,-1.04,1.94,-0.18
"ex643",0.21,0.45,0.08,0.84,0.02,1.10,1.13,2.10,3.54,5.12,5.19,4.35,3.86,4.64,2.94,0.29,-0.07,-0.31,-0.65,0.74,-0.37,0.65,-1.67,0.01,-0.23,0.83,0.87,1.18,1.25,1.35,0.80,0.01,-0.32,0.19,1.68
"ex644",-0.69,1.27,0.28,2.91,2.63,4.17,4.16,1.68,2.19,1.89,1.40,2.94,2.95,2.61,3.60,2.37,3.82,2.64,2.04,-0.82,0.74,-0.19,-1.17,-0.26,0.17,0.64,0.05,-1.73,1.69,-0.22,1.20,-2.14,0.36,0.32,-0.31
"ex645",-0.45,1.35,1.76,2.05,2.22,4.48,3.90,5.67,3.72,5.08,3.57,0.37,-0.12,-0.22,0.39,-0.23,1.26,0.53,-1.37,0.76,1.03,0.92,-0.27,-0.62,-0.47,-1.20,0.79,-0.46,0.31,-0.31,1.20,1.91,-1.97,0.23,-2.10
"ex646",-1.18,2.04,0.06,-1.47,0.32,-0.47,-0.33,1.58,0.79,1.91,3.35,5.36,6.19,3.47,4.08,4.47,3.39,3.76,3.33,0.89,1.48,0.54,-1.02,-0.22,-0.14,0.86,-1.82,-0.49,0.62,0.26,0.64,-0.31,-2.53,-0.56,-1.38
"ex647",1.05,0.77,-0.36,0.16,-0.44,1.48,2.18,0.00,1.61,1.13,3.72,4.17,4.35,4.22,5.60,3.90,3.33,2.34,0.77,0.51,0.80,0.45,1.28,0.36,0.11,-2.01,1.25,-1.55,1.31,-0.14,1.46,-1.22,1.41,0.16,-0.00
"ex648",-1.73,1.41,1.75,0.39,3.38,3.59,3.78,3.17,5.39,3.58,5.78,3.74,3.09,-0.10,0.96,0.32,0.89,-1.74,0.61,0.71,-1.00,0.36,0.54,0.65,2.36,-0.02,0.00,0.57,1.74,0.53,0.58,0.63,0.86,0.94,-1.38
"ex649",-0.90,-0.15,-0.31,0.53,2.26,2.80,-0.15,3.96,3.99,6.15,5.98,5.46,2.78,2.22,2.76,-1.39,0.73,0.51,1.56,-0.22,0.36,-0.94,1.97,0.88,-0.55,-0.03,-0.92,-1.77,0.48,-0.46,0.73,-0.85,0.27,-0.07,-1.25
"ex650",1.11,2.53,0.83,3.14,1.76,4.16,6.06,3.24,3.04,0.49,2.63,2.11,0.62,3.64,0.34,2.18,1.25,2.75,-0.21,0.05,2.15,0.65,0.14,-0.18,0.76,0.69,0.00,0.76,2.28,-1.96,-1.11,-0.20,0.79,-0.92,-0.76
"ex651",-0.79,-1.62,-1.03,1.08,-0.17,2.11,1.30,1.66,2.79,3.32,5.82,3.90,4.39,2.08,3.10,2.13,1.87,-0.46,1.62,0.44,0.60,0.86,-0.71,0.68,0.57,-0.51,0.60,1.57,-0.15,0.74,0.36,0.59,-0.64,-1.51,0.80
"ex652",0.69,0.38,-0.22,-0.94,-0.36,0.80,2.04,1.34,3.13,3.22,3.20,0.86,3.60,2.38,3.34,2.94,1.93,1.84,0.04,0.24,-0.74,0.87,0.34,-0.09,0.69,-1.46,0.26,1.56,-1.04,-1.18,0.33,-0.95,0.73,0.65,0.07
"ex653",0.26,1.23,0.58,3.47,3.17,3.30,5.79,3.83,3.78,4.30,3.24,2.23,0.85,-0.78,0.17,0.60,-0.32,0.84,1.19,0.48,-1.38,-1.92,-0.26,0.23,0.79,-0.07,0.14,0.21,-1.52,-0.09,-1.50,0.72,0.15,-0.76,0.29
"ex654",-1.49,-0.03,-0.12,1.60,2.95,4.32,5.23,4.38,3.69,4.23,2.85,3.66,0.28,0.37,1.72,-0.65,1.04,0.23,-0.42,0.76,1.17,-0.50,1.17,-0.84,-1.10,0.87,-0.70,1.96,0.29,-1.10,-1.58,0.03,0.03,0.61,-1.45
"ex655",0.32,1.89,1.76,0.47,1.18,3.43,4.07,3.34,4.23,4.07,2.30,2.95,1.46,-0.34,2.63,-1.10,-0.04,1.60,-0.83,-0.34,-0.37,0.43,-1.25,2.09,-0.95,0.16,-0.03,-0.60,0.64,-0.31,0.54,-0.31,0.18,-0.41,0.33
"ex656",-0.72,0.70,0.38,3.47,2.39,3.81,2.13,2.50,1.53,3.14,4.51,2.13,1.41,2.34,2.05,2.41,0.58,2.43,1.13,0.54,1.63,0.72,-1.06,0.51,-0.65,0.21,0.25,-0.45,-0.56,-0.79,-0.36,-1.22,0.26,0.15,1.08
"ex657",-1.42,0.25,-0.01,0.76,0.05,1.83,1.60,3.39,4.90,4.13,6.50,4.61,4.08,3.00,2.99,0.89,-0.45,1.76,0.40,0.84,0.42,-0.59,1.10,-0.04,-1.28,-1.26,-1.93,-0.87,0.85,-1.00,-0.72,1.62,0.27,0.54,0.72
"ex658",0.33,-0.18,-0.76,0.40,1.74,0.34,3.38,2.76,-1.00,1.73,1.03,1.76,2.78,1.69,5.49,3.14,3.23,2.11,0.90,0.41,-0.33,-1.23,-1.71,-1.29,-0.09,0.45,-0.11,0.02,0.44,1.02,-0.19,-0.94,-0.50,-0.74,0.51
"ex659",-1.12,2.91,2.38,2.81,2.66,3.93,4.43,3.73,2.83,1.33,3.72,0.74,0.48,0.48,-0.42,-0.22,0.75,0.23,-0.24,1.57,-0.09,0.04,1.16,1.57,-0.67,1.59,-0.77,0.75,0.36,-0.02,-0.70,0.22,-1.18,1.11,0.45
"ex660",-0.16,-0.77,-0.15,0.29,-1.23,0.13,2.14,2.50,2.27,3.41,5.84,3.04,2.00,3.66,2.44,1.37,0.94,-0.60,0.71,-0.48,1.11,-1.45,0.99,-1.80,2.10,-0.39,-1.26,-0.09,0.63,-0.65,2.28,0.86,-0.06,0.49,-1.53
"ex661",-0.79,0.55,1.25,2.84,5.45,4.60,7.14,5.41,3.97,5.87,0.08,-0.03,1.39,0.76,-0.38,-0.80,-0.44,-0.40,1.02,1.53,-0.12,0.09,1.49,1.01,0.30,0.35,0.12,-1.50,0.09,-0.04,-1.47,-0.02,0.16,-2.28,0.34
"ex662",0.11,0.75,-0.94,1.69,-1.96,1.43,2.32,-0.59,1.59,2.91,5.92,4.55,3.99,3.84,3.93,2.04,3.07,-2.27,0.11,-0.77,0.89,0.15,-0.49,1.80,0.82,-0.57,-0.89,1.62,0.88,0.79,-0.03,-0.27,-0.28,-0.83,2.86
"ex663",1.18,-1.12,1.34,-1.44,0.54,2.52,1.22,2.72,3.18,3.45,4.82,3.42,3.80,4.65,1.20,2.01,-1.15,2.19,0.71,0.33,-0.21,-0.44,-0.59,0.56,-0.28,0.86,0.82,-1.15,0.18,-1.76,0.58,-0.45,-0.61,-0.41,-0.22
"ex664",-0.25,-0.46,0.65,-1.58,-0.16,1.23,1.35,1.95,3.68,2.70,4.57,3.95,4.67,4.83,1.81,2.11,1.52,2.00,-0.08,1.63,-1.12,-2.24,0.37,0.16,0.03,1.32,0.22,1.29,-0.13,-0.70,1.64,2.01,0.39,0.68,1.82
"ex665",0.52,-0.14,0.08,0.13,1.16,2.68,1.35,3.39,3.02,3.62,4.77,4.87,2.95,2.28,1.37,3.34,-0.44,-0.09,1.43,-0.58,-1.15,-1.10,-0.01,-0.06,0.93,0.08,1.38,-0.32,-0.04,-0.73,0.54,0.27,-0.42,-0.14,-1.09
"ex666",1.29,0.92,0.53,3.84,2.83,0.83,4.94,3.35,2.91,3.57,0.74,2.78,0.37,-1.25,2.05,0.19,2.08,-0.09,0.75,0.55,-1.04,0.84,-0.55,-1.27,-0.65,0.80,-0.49,0.95,-0.55,-0.52,1.04,0.32,-1.53,-0.30,0.62
"ex667",-1.22,-0.14,-0.18,0.15,-0.70,2.50,1.01,1.41,-0.27,4.28,1.65,2.11,3.69,6.02,5.78,4.86,3.79,3.59,1.51,-0.12,-0.88,0.82,-0.31,1.01,-1.19,0.60,1.47,2.27,0.14,0.46,1.62,-1.63,-0.05,0.45,-0.90
"ex668",-0.64,1.54,1.76,0.10,-0.79,0.72,1.88,4.22,4.83,4.41,6.63,3.09,1.83,1.94,-0.55,0.45,2.37,-0.19,-1.15,0.71,-0.03,0.20,1.03,0.91,0.07,-2.23,-0.38,-0.98,1.82,1.13,-2.30,0.90,-0.04,0.24,-0.70
"ex669",-0.47,0.33,-1.19,-0.27,1.08,1.54,1.29,1.09,-0.01,-0.55,0.05,2.78,4.41,3.34,3.53,3.85,4.03,2.49,-0.04,1.77,1.62,-1.13,0.83,0.45,-0.56,-0.04,0.75,-0.64,-0.07,1.36,0.33,2.05,1.50,0.06,-1.82
"ex670",1.20,1.35,1.51,1.97,0.32,2.49,3.81,4.16,3.82,2.43,4.74,3.03,3.02,0.59,0.78,1.35,0.20,0.52,-0.78,0.51,1.40,0.47,1.50,-0.55,-1.43,0.14,0.16,0.41,1.62,-0.10,-0.12,0.83,0.61,0.58,-0.02
"ex671",-1.02,-0.64,0.77,0.71,1.86,2.36,3.28,5.52,5.11,2.59,4.47,3.16,2.69,2.49,0.44,1.67,0.77,0.10,0.46,-2.44,-0.41,-0.46,0.22,-0.37,-1.67,0.00,-0.86,2.14,-0.80,0.76,-1.40,0.45,-0.52,-2.91,-0.96
"ex672",-0.68,-0.94,-0.12,-1.01,1.27,1.99,0.55,0.54,1.85,1.14,4.07,2.68,3.76,5.25,3.07,3.44,3.20,2.07,2.41,-1.12,-0.62,-0.04,-1.51,0.88,0.81,0.38,0.12,0.65,-0.17,0.18,-0.56,2.06,-0.19,-0.57,-0.23
"ex673",1.66,0.64,0.86,1.96,0.87,3.07,3.95,1.61,1.30,0.10,3.59,0.02,1.08,0.71,2.61,3.18,1.04,2.31,0.95,1.36,0.77,-0.56,-0.21,-0.90,0.46,-0.25,0.28,0.94,1.35,0.72,0.41,0.71,-0.13,3.85,1.46
"ex674",0.75,0.79,-0.88,0.03,0.28,-0.64,2.03,3.45,3.22,5.07,4.21,4.23,5.15,2.11,3.09,3.98,1.88,-0.20,0.31,-1.67,-0.66,0.78,0.08,0.74,0.16,-0.96,0.04,1.35,-0.76,-1.61,0.21,-0.52,1.22,-0.28,0.59
"ex675",-0.17,1.62,0.52,2.80,5.10,3.73,5.23,6.01,3.36,1.96,3.03,1.06,2.86,0.82,2.19,1.08,0.20,0.72,2.44,-0.88,-1.93,-1.69,0.42,0.62,1.28,-1.04,2.54,0.54,0.67,-0.19,0.29,0.20,-0.32,0.46,-0.27
"ex676",0.50,0.31,1.07,0.64,0.65,1.50,2.87,3.35,3.28,4.53,5.34,6.46,3.55,3.26,1.56,-0.20,0.45,-1.44,0.88,1.39,-0.25,-0.97,-0.62,-2.01,-0.95,-2.52,-0.95,-1.31,0.22,-0.02,-0.71,0.25,-2.28,-1.30,0.96
"ex677",0.18,0.27,-0.68,-0.36,-1.24,1.60,-1.88,0.04,0.44,2.29,1.54,3.42,4.21,4.37,4.84,4.56,3.47,1.46,0.52,0.08,-1.46,-1.29,-0.57,-0.75,0.69,-0.24,0.68,-1.01,0.88,0.61,1.91,0.17,-1.42,0.96,-0.63
"ex678",1.52,-1.08,-2.11,2.08,1.31,2.25,2.79,4.65,5.01,5.42,3.01,5.03,2.65,2.25,2.28,-1.65,0.75,0.89,0.59,-0.51,1.20,-0.26,0.61,-0.64,-1.10,-0.16,0.20,-1.84,-1.06,0.20,1.12,2.57,-1.14,0.79,0.52
"ex679",-0.08,-0.28,1.61,4.20,3.80,4.40,6.13,4.41,3.84,2.52,1.32,-0.48,0.75,0.20,0.17,0.14,0.73,0.17,0.52,0.28,3.24,0.88,0.53,1.48,-0.05,1.32,0.21,0.56,1.93,-0.16,-0.27,0.32,-0.15,-0.61,0.60
"ex680",-2.75,1.26,0.13,1.60,1.42,3.48,2.87,2.42,1.71,3.13,1.55,1.35,2.96,1.65,3.19,2.39,2.88,-0.18,0.02,0.61,-0.21,0.76,0.72,-0.26,0.30,0.01,-1.59,0.39,0.67,-0.02,0.43,-0.63,1.19,0.09,0.55
"ex681",-0.71,-1.83,1.55,1.14,2.33,3.24,1.27,2.53,2.23,2.11,1.58,1.34,1.87,2.49,2.82,2.25,1.93,2.03,1.54,-1.82,1.14,0.74,0.44,-0.00,-0.31,1.00,-0.33,-0.56,0.74,-0.05,-1.42,-0.02,-1.27,-0.85,-0.43
"ex682",0.98,0.22,0.12,-0.40,1.95,1.45,2.51,2.39,3.89,1.52,1.52,3.51,2.38,2.27,4.23,3.63,2.08,2.17,-0.40,-0.41,-1.15,0.09,-0.00,1.55,-0.56,-0.30,-2.06,-0.16,-0.41,-0.63,-0.56,-0.79,-1.14,0.03,0.13
"ex683",1.15,-1.71,1.43,-0.62,0.14,0.02,2.08,4.86,2.35,4.55,7.50,5.71,5.66,2.41,2.23,2.21,0.83,-0.53,1.81,-0.30,0.25,-0.90,-1.03,-0.32,0.50,-0.75,-1.62,0.10,-0.58,-0.42,0.26,-1.13,-0.44,0.18,1.18
"ex684",0.51,1.11,2.02,2.82,3.63,4.19,5.34,4.06,5.90,2.54,3.27,2.20,0.92,-0.01,0.70,-1.51,-0.43,0.80,-2.09,-1.52,-0.19,-0.88,-0.82,-0.37,-0.88,0.74,1.21,0.87,1.01,-1.00,0.58,-1.66,0.74,-0.46,-1.32
"ex685",-1.17,-0.28,-1.42,2.01,0.81,1.78,2.15,4.62,3.88,3.53,3.49,4.33,3.42,3.60,0.97,0.43,1.14,-1.18,2.12,-0.59,0.92,-0.73,-0.88,-1.02,-0.02,-0.60,-0.03,-0.70,2.24,-0.25,0.97,-1.35,1.29,-0.01,-0.60
"ex686",-1.81,1.17,-2.05,-0.16,0.68,0.10,0.61,0.62,2.20,4.35,4.62,5.33,2.49,2.61,2.60,1.53,1.90,3.16,0.64,-0.59,1.23,1.48,-0.93,-0.10,0.32,-0.67,1.52,0.00,-1.92,-1.66,-1.01,0.69,0.44,-0.24,-0.66
"ex687",-0.37,1.38,0.97,3.30,2.01,3.59,6.18,3.44,4.29,4.02,4.66,3.03,0.81,1.81,1.51,0.19,-0.86,1.08,1.45,-0.18,0.73,-0.12,0.82,1.74,0.08,0.77,-0.40,0.46,0.43,-0.33,0.74,1.21,1.88,0.23,-0.22
"ex688",-0.32,0.15,0.82,3.73,2.57,2.63,5.22,1.81,2.78,2.82,2.55,2.01,-0.25,0.32,0.63,0.86,-0.27,0.85,-0.66,0.12,-1.09,2.49,0.24,0.77,-1.94,0.43,-0.89,1.49,-0.29,0.81,1.19,-0.05,-0.01,-0.27,1.16
"ex689",-0.08,0.30,0.67,1.35,2.08,2.73,4.36,4.07,3.17,4.67,1.42,0.20,0.65,1.10,0.47,0.63,2.53,-0.77,0.39,1.83,-1.03,-1.15,0.85,0.92,-1.08,-0.04,1.81,3.04,-0.68,0.26,-0.14,-0.29,1.63,-0.38,-1.54
"ex690",-0.90,0.22,-1.38,-0.57,0.99,0.30,-1.16,-1.63,0.48,1.17,1.29,2.61,3.52,4.67,6.96,4.16,2.30,3.15,2.65,2.53,0.50,-1.84,-0.19,1.56,0.97,-0.00,-0.60,0.20,-2.11,0.24,-1.09,1.23,0.31,0.01,0.29
"ex691",0.57,0.32,-1.45,1.45,-0.90,0.39,1.22,2.17,2.21,3.11,5.52,3.11,2.55,6.07,4.10,3.09,4.94,1.96,1.02,1.14,-1.84,0.31,0.72,-1.70,-1.36,-0.10,-0.70,0.26,0.55,0.02,0.74,-1.00,-0.31,0.13,0.59
"ex692",0.65,1.75,0.59,2.16,1.84,1.51,1.90,2.45,2.48,1.31,2.45,3.57,1.62,2.56,3.73,2.36,2.39,3.07,1.77,-0.79,1.10,-0.00,-0.61,-1.93,-0.34,-0.66,-0.45,-0.37,-0.03,-0.23,2.57,0.16,2.05,1.30,0.82
"ex693",0.32,-1.63,-0.81,0.08,0.89,1.48,3.46,3.24,4.41,5.24,6.23,4.83,4.16,2.88,2.54,0.65,-1.74,-0.26,-0.35,1.44,0.51,0.89,0.88,0.24,-0.10,-0.07,0.01,0.03,1.52,1.34,-0.13,1.16,0.87,0.24,0.04
"ex694",-1.92,1.63,-1.16,0.63,0.18,-1.04,0.56,-0.28,1.41,2.44,4.20,5.69,5.26,5.17,4.31,2.21,3.56,1.21,1.55,-1.49,0.33,-2.34,-0.64,1.89,0.52,0.89,0.95,2.32,0.57,-0.57,-0.72,-0.38,1.65,-1.40,-0.54
"ex695",1.03,0.04,1.08,2.01,3.21,3.26,5.81,2.60,4.38,4.74,3.72,1.38,-1.30,0.32,-0.88,0.76,-1.05,-1.03,-0.23,-0.88,0.05,-0.21,0.08,-0.09,0.11,-0.32,-0.33,0.66,0.25,-0.17,0.90,0.45,0.43,1.29,-1.61
"ex696",0.22,-0.77,-0.72,-0.05,1.27,1.17,2.13,0.67,0.74,2.34,4.08,4.01,2.66,4.57,5.53,2.43,3.51,3.49,2.41,1.25,-0.01,0.62,1.40,1.39,0.10,0.94,0.04,-0.29,1.03,0.68,-0.74,0.74,-0.74,-0.74,-0.19
"ex697",-1.75,1.05,1.31,1.97,2.23,4.32,4.90,3.73,3.05,2.26,2.15,3.37,1.33,-0.78,0.55,1.58,0.84,-0.54,2.00,-1.11,1.11,-0.30,1.07,-1.70,0.48,-0.10,0.40,0.52,-1.91,1.10,0.64,0.06,-1.08,-0.58,-0.50
"ex698",-0.24,0.50,0.76,-0.80,0.23,1.74,3.13,2.28,3.64,4.21,7.59,3.33,4.30,3.40,1.08,0.87,0.35,-0.88,0.45,1.37,-0.27,0.67,-1.74,0.28,-1.26,-1.36,-0.73,-2.05,-1.15,-0.81,0.85,-0.38,0.56,0.30,0.83
"ex699",0.64,-0.05,-0.24,0.42,0.24,1.24,0.39,2.14,1.69,2.78,4.21,5.02,4.09,5.24,3.55,1.83,2.65,0.21,0.44,0.97,1.61,-0.60,1.40,0.03,-0.93,1.05,-0.83,0.03,-1.29,0.11,-0.07,0.33,-1.70,-0.50,-0.01
"ex700",0.82,1.82,2.38,1.64,3.54,4.02,6.19,4.49,3.88,2.22,4.26,3.13,1.38,-0.62,0.88,1.44,-0.07,1.52,-1.69,-0.55,0.07,-0.15,0.17,0.66,2.02,1.25,0.90,-0.54,0.73,-0.58,-1.21,-1.76,-0.37,1.85,-0.86
"ex701",-0.70,0.40,1.14,0.88,0.72,0.09,2.90,3.54,5.16,3.45,5.65,3.45,4.24,2.68,1.89,-1.09,0.97,-1.32,-0.55,-0.18,0.49,0.34,1.53,-0.84,-1.12,1.19,0.87,-0.12,-1.32,0.60,0.11,0.72,0.53,0.49,1.58
"ex702",-0.66,0.11,-0.84,0.32,-0.58,0.37,-0.74,1.23,0.05,0.97,1.12,2.39,4.56,4.50,5.84,4.70,4.76,2.93,0.92,-0.24,-0.59,1.07,-0.09,-0.31,-2.16,-0.15,1.81,1.45,0.98,-0.87,0.07,0.15,-1.54,0.93,-0.09
"ex703",-0.07,-0.34,-1.10,0.35,0.12,0.94,3.18,1.92,4.19,4.42,3.41,3.90,4.00,3.56,1.64,0.79,1.82,-0.12,0.17,-1.62,0.32,-0.36,-1.36,1.81,-0.37,-0.13,-1.62,-0.59,0.21,1.82,0.35,0.50,0.88,0.39,1.96
"ex704",-0.39,0.98,0.23,-1.52,-1.60,2.89,-0.06,2.17,4.94,3.17,6.61,4.77,4.34,3.42,1.69,1.60,1.29,0.60,1.09,1.89,-1.65,-1.33,0.23,-0.61,-0.86,-0.90,-1.16,-0.47,-1.12,-0.97,0.01,0.78,0.13,1.48,-0.33
"ex705",1.08,0.79,1.45,3.26,4.06,4.36,6.07,3.97,4.22,2.03,3.44,1.35,0.43,-0.11,-0.78,0.50,1.21,-0.35,-0.94,0.38,0.72,-1.39,-0.30,0.17,-0.76,-0.26,-0.83,0.33,-0.54,-0.05,-0.14,-0.01,-0.43,-0.50,0.76
"ex706",0.24,0.53,0.94,-0.35,0.42,0.32,0.43,1.73,4.49,4.47,4.59,6.04,2.52,2.78,4.08,1.08,2.62,0.68,-0.50,-1.55,-0.98,0.41,0.20,-0.59,0.01,-0.79,-0.40,1.52,-1.76,0.74,-0.12,-1.19,-0.70,0.29,-0.04
"ex707",-0.77,-1.26,0.11,-0.75,-0.17,0.81,2.65,2.78,0.21,0.10,0.91,2.14,0.46,3.58,5.29,3.83,1.21,1.57,1.32,-0.52,-0.09,0.12,0.10,-1.62,0.12,1.39,-1.44,-0.29,-2.50,0.10,0.16,2.58,-0.36,-1.80,-0.61
"ex708",-0.46,0.20,1.75,1.71,1.47,2.36,4.22,3.41,4.01,4.61,2.49,1.50,2.34,-0.02,0.04,-0.07,-1.12,-0.31,-1.07,0.25,0.62,1.11,0.54,0.59,0.86,0.36,-0.91,0.45,-0.18,-0.50,0.29,1.14,-1.20,-1.04,-1.55
"ex709",0.31,-0.60,0.67,2.14,1.06,0.78,2.09,2.22,0.42,1.58,2.22,0.88,4.63,3.77,3.29,2.32,3.52,3.32,0.95,0.92,-0.52,1.95,1.11,-1.19,-0.07,1.20,1.38,-1.60,-0.27,0.94,-0.36,-1.35,2.17,1.04,-2.76
"ex710",0.14,-0.15,0.45,0.07,0.67,0.83,3.77,2.61,2.87,5.09,5.68,4.35,4.53,2.97,3.60,1.68,2.26,0.21,-1.11,-0.94,0.07,-0.85,0.75,0.73,0.60,1.72,0.11,-0.71,0.03,-0.87,1.66,0.36,0.24,-1.10,1.26
"ex711",-0.65,-0.43,1.44,1.30,2.08,2.41,3.90,5.70,3.81,0.46,3.84,1.63,2.05,3.26,2.43,2.00,1.43,0.54,0.25,0.84,1.75,-0.15,-1.14,-0.04,-0.49,-0.66,-0.60,-1.06,1.46,0.93,1.00,-1.05,-0.91,0.78,-2.86
"ex712",1.19,1.13,-1.04,2.77,3.21,3.10,2.00,3.38,3.00,2.20,3.98,1.41,1.69,3.02,1.49,0.93,1.27,0.26,-0.81,-0.79,1.07,0.45,1.91,0.83,0.04,-0.18,0.20,0.08,0.62,-0.47,3.03,0.42,-0.18,1.15,-0.76
"ex713",-0.43,1.03,-0.43,-1.11,0.48,1.45,-1.18,-1.11,1.29,2.82,3.65,3.11,2.67,5.18,4.68,3.50,3.16,2.99,1.22,-0.97,-1.31,-0.63,-0.21,-0.56,-0.06,-0.17,1.14,0.07,0.64,-0.91,0.12,-0.30,0.48,-0.69,0.43
"ex714",-0.40,0.11,1.88,0.92,1.97,4.40,6.21,3.90,4.29,4.51,2.54,3.23,0.02,-0.61,2.05,1.68,0.80,-1.25,0.52,1.18,-0.15,-0.72,0.75,0.78,1.52,-0.13,0.16,-2.75,0.33,-0.16,0.69,-0.81,0.13,0.66,0.18
"ex715",1.56,0.33,1.69,1.36,3.10,3.14,4.66,4.18,5.36,1.55,1.66,0.65,0.87,0.73,1.54,-1.04,1.02,1.38,1.89,0.10,-0.81,-0.36,-1.71,-0.17,-0.52,0.40,-0.02,0.97,-0.02,-1.30,-0.24,-0.78,1.06,-0.18,0.33
"ex716",-0.55,0.80,0.72,-0.15,2.17,1.06,1.65,2.59,3.93,4.78,3.44,2.58,1.90,0.54,1.02,-1.05,-1.08,1.33,-0.48,-0.36,-0.56,-1.14,0.82,0.42,-1.15,1.47,0.67,-1.70,0.58,0.08,0.13,1.78,1.96,0.20,0.40
"ex717",1.38,1.35,1.87,1.64,4.24,3.10,3.16,3.26,1.86,1.38,1.67,-0.75,1.41,1.84,1.40,0.80,2.75,-1.44,0.88,0.92,0.08,0.32,-0.26,2.27,1.58,-0.36,1.00,0.88,-0.60,0.48,0.30,0.47,0.16,0.37,0.38
"ex718",-0.60,1.88,1.32,1.56,2.24,3.16,4.36,4.88,1.12,3.53,1.91,0.59,1.32,-1.12,0.52,0.58,0.63,-0.65,-0.24,-0.13,0.16,-0.66,0.42,0.59,-0.04,0.46,-0.64,-0.37,-0.35,-0.87,1.45,-0.32,0.37,-1.94,-0.73
"ex719",0.62,-0.29,-0.57,-0.03,1.16,-0.45,-0.18,2.38,1.62,1.97,1.88,5.01,3.31,4.51,2.45,3.53,1.87,2.86,0.34,0.07,1.26,-0.44,0.93,0.11,-0.65,0.13,-0.19,0.54,-0.14,-0.37,0.09,0.68,-1.56,0.63,-0.10
"ex720",1.30,-1.62,2.72,3.31,5.71,5.12,4.88,6.49,3.58,4.79,1.99,-0.23,0.51,-0.04,-1.03,1.64,0.35,1.77,0.30,-0.85,-0.05,0.19,1.38,1.70,0.08,0.68,1.81,-0.45,0.39,2.63,0.02,-1.57,-0.45,1.61,3.02
"ex721",-0.34,-0.21,-0.25,-0.02,-0.45,0.43,0.89,2.45,3.08,2.90,4.94,3.47,3.85,5.24,3.87,3.88,1.60,0.96,0.58,0.16,0.26,-0.10,0.03,0.25,0.42,-0.87,-0.18,0.35,0.10,-0.88,0.07,0.72,1.02,-0.21,0.47
"ex722",0.65,-0.07,1.50,2.87,3.24,1.79,3.97,4.16,1.15,3.14,1.60,0.89,2.82,0.76,1.36,2.31,1.09,1.20,-0.44,-0.22,-1.01,-0.11,1.06,-0.11,0.87,1.06,-0.42,-0.25,-0.61,1.14,1.18,-1.03,-0.03,0.74,-0.14
"ex723",-0.92,0.26,-0.59,-0.36,0.05,0.90,-1.18,0.93,2.77,3.80,4.37,2.94,3.53,3.72,2.17,1.40,2.85,0.91,1.50,1.13,-0.51,-1.20,-0.38,1.46,-2.03,0.19,0.25,1.97,-1.17,-0.48,1.06,0.70,0.15,0.46,0.38
"ex724",-0.96,0.82,-0.34,2.04,-1.08,-2.34,1.05,-0.38,-0.10,0.85,2.82,2.99,4.51,2.53,5.97,1.07,4.45,3.38,1.61,0.70,-0.01,-1.47,-0.17,0.77,0.58,0.55,-0.40,-0.09,-0.29,-0.04,-0.10,0.53,-1.03,1.20,0.65
"ex725",0.78,0.47,-1.88,0.50,1.14,1.42,2.15,1.26,-0.99,0.84,2.74,3.19,3.29,2.17,3.60,2.65,3.70,1.01,1.74,1.02,1.18,1.17,0.91,1.79,0.05,0.49,-1.30,0.55,0.44,-0.60,0.16,1.15,1.01,-1.06,-0.44
"ex726",-0.67,0.26,0.69,-1.93,0.10,-0.33,2.00,0.12,0.24,-0.91,4.28,2.47,1.78,5.88,5.10,2.09,4.16,2.98,0.99,1.35,-1.47,0.69,-1.18,-0.46,-0.14,-0.21,-0.45,-0.82,0.03,0.27,-0.32,-1.88,0.83,3.02,0.29
"ex727",1.45,-0.60,-0.18,0.16,-0.81,-0.74,0.98,0.25,1.96,2.95,2.02,4.68,4.04,4.25,4.42,2.81,2.32,2.74,0.28,0.93,-0.50,-0.89,1.03,-0.97,0.07,0.23,-0.27,0.96,-0.13,-0.23,-0.44,0.57,-0.77,-0.11,-0.91
"ex728",0.33,-0.45,0.39,0.35,0.31,2.41,0.54,0.11,-0.69,1.47,0.32,2.44,5.29,5.00,6.49,6.05,5.19,1.46,0.96,2.01,2.10,-0.26,0.78,0.54,0.75,1.03,1.05,0.02,-0.30,-0.03,-0.44,-1.20,-0.80,0.06,-0.80
"ex729",-0.36,-0.08,3.51,3.51,4.18,4.26,2.79,2.40,4.70,3.62,1.76,2.09,1.04,0.78,2.07,-1.22,1.61,0.80,0.34,-0.77,0.10,0.56,0.55,-0.26,-0.02,0.88,-1.09,0.52,-0.29,-0.74,-0.35,0.61,1.89,0.35,-2.11
"ex730",-0.29,-0.78,1.69,0.65,-1.13,2.04,2.12,3.33,2.80,1.65,3.41,5.71,6.39,3.56,4.84,3.40,2.69,0.20,2.06,1.48,0.67,0.82,0.15,-1.11,-2.06,-2.35,0.30,0.86,0.98,-0.71,0.01,1.80,-0.30,1.59,2.33
"ex731",0.56,2.38,1.19,2.87,1.94,1.90,3.12,3.45,1.85,1.86,1.75,0.89,5.03,2.27,0.95,2.50,0.70,0.56,1.32,-0.01,-0.32,0.63,1.19,-0.50,0.85,0.47,-1.88,-0.19,1.64,0.82,-0.61,0.19,-3.24,-0.05,1.28
"ex732",1.41,-1.19,1.20,2.85,-0.03,2.90,3.72,4.19,3.39,4.70,3.77,2.56,3.19,2.61,1.07,1.39,-1.48,0.69,1.54,-0.87,-0.92,-1.68,0.64,0.77,1.12,-0.19,-0.54,-0.05,0.48,-0.81,-0.27,2.27,-0.35,-0.84,0.21
"ex733",-0.31,-0.02,0.29,1.25,-0.40,-1.58,-1.10,-1.01,0.22,1.25,4.47,3.38,5.00,3.79,6.07,3.88,2.60,1.98,1.40,0.90,-0.41,0.03,1.46,0.49,0.41,0.67,0.52,-0.70,-2.20,-1.47,1.39,0.02,0.61,1.37,-3.46
"ex734",0.95,1.88,2.02,4.36,4.44,4.72,6.81,5.64,2.66,3.60,1.82,-1.19,-0.46,0.63,2.65,-0.76,-0.61,-0.28,-0.33,-1.21,-0.73,1.43,0.32,-1.00,-0.64,-0.00,-0.16,-0.80,0.22,-0.41,0.56,-0.31,-1.04,-1.56,0.45
"ex735",-0.33,0.74,1.63,1.70,3.76,3.84,4.97,5.00,2.47,3.06,1.59,2.08,0.97,-0.83,0.26,0.16,0.01,0.38,-0.13,0.25,0.17,0.44,-0.34,1.13,1.84,-1.10,0.18,1.19,0.65,-0.42,-0.44,0.67,1.63,-0.29,-0.04
"ex736",0.75,0.83,1.03,0.06,-0.25,1.07,1.82,2.35,3.31,4.03,6.44,5.61,3.50,3.30,3.75,0.90,1.38,2.57,1.34,-0.70,1.41,-0.71,-0.19,0.02,-0.61,1.36,-0.46,-0.32,1.47,0.19,-0.65,-0.05,0.13,-0.04,1.14
"ex737",-0.78,0.93,-1.74,-1.15,-0.27,1.65,0.25,1.49,-0.39,0.26,1.56,2.52,3.55,5.15,5.90,3.76,3.45,2.25,1.75,0.87,0.38,0.14,0.14,-1.38,-0.88,1.36,0.71,1.64,-0.09,0.07,0.11,1.08,0.56,-0.76,-0.30
"ex738",-0.36,-0.24,0.96,1.82,2.26,3.69,2.71,3.58,3.36,1.90,2.14,2.82,3.24,0.97,1.24,1.36,-0.05,0.59,0.63,0.58,-1.02,-0.77,-1.21,-1.05,2.05,1.96,1.06,-0.26,0.52,-0.84,0.80,-0.96,-1.36,-2.05,0.25
"ex739",0.93,0.96,0.70,-0.39,0.27,-0.51,-0.89,-0.60,-0.78,1.46,1.55,1.51,3.86,7.69,6.25,3.46,3.77,1.25,2.40,-0.83,0.10,0.32,0.14,1.00,-0.72,-0.06,1.44,-0.54,0.10,0.33,0.01,-1.16,-0.81,-1.96,-0.10
"ex740",-2.20,0.35,1.84,2.08,1.91,1.48,4.45,3.32,2.15,1.32,2.04,2.85,1.97,0.08,3.92,1.37,0.69,-0.17,1.24,0.39,0.36,1.31,-0.49,1.13,-0.39,-2.24,-0.18,-1.04,-0.37,-0.72,1.22,-0.78,0.94,-1.01,1.58
"ex741",-0.38,0.92,-0.58,-0.27,2.15,2.09,2.62,4.43,5.09,3.33,5.56,5.10,2.91,3.27,2.16,-0.25,-0.76,0.21,0.71,-0.28,-0.22,0.92,-2.05,-0.50,-0.42,1.46,-1.01,-0.26,-0.69,-1.65,1.39,1.34,0.30,-1.98,-1.23
"ex742",1.04,0.22,0.54,0.89,0.23,2.49,2.68,4.57,3.79,3.30,5.35,3.22,2.58,1.03,0.54,-1.05,1.30,0.07,-1.74,-0.08,0.64,-0.04,-0.98,-0.50,-1.35,0.65,0.81,-0.51,0.54,0.90,1.08,0.50,-0.56,0.57,0.13
"ex743",-1.33,0.01,2.00,3.62,3.07,4.47,3.87,4.26,3.91,3.45,3.21,1.54,1.48,0.06,0.32,0.51,-0.75,0.08,-0.71,-1.05,0.11,1.60,-1.63,0.46,1.39,-0.16,1.01,0.60,0.37,2.17,-1.08,-1.59,-2.08,-0.08,-0.84
"ex744",0.14,-0.61,0.97,3.07,3.93,5.16,5.65,4.98,2.68,3.69,3.02,0.39,0.25,-1.38,0.88,0.23,-1.46,0.43,-0.79,0.83,-0.37,0.52,-0.82,-0.48,0.13,0.35,1.62,0.62,0.79,0.13,0.22,-0.52,-0.48,-0.79,-0.00
"ex745",-0.40,-0.48,-2.39,-0.50,1.95,0.77,2.01,0.97,0.89,0.46,0.09,3.25,2.34,4.31,4.99,5.88,3.96,1.49,2.47,2.02,-0.90,-1.97,-1.32,0.13,-0.09,0.35,0.15,-1.12,-0.11,0.86,-1.64,-0.70,-0.74,2.76,1.93
"ex746",-0.63,1.22,3.99,1.23,1.77,4.27,4.93,4.67,5.02,0.71,3.64,1.48,1.85,-0.38,1.08,0.83,-0.46,0.61,0.68,1.32,0.86,-0.78,-0.66,-0.44,0.23,-0.46,-2.58,1.05,0.61,1.38,-0.24,0.79,1.54,-0.66,-1.00
"ex747",-0.55,-0.53,1.40,2.32,2.38,4.75,2.23,3.44,3.41,2.57,2.85,0.77,2.46,2.34,2.44,2.53,2.55,0.91,1.51,0.19,-0.19,0.52,0.82,-0.51,-0.22,1.92,1.42,-0.82,1.66,-0.18,1.41,-0.34,0.56,-2.40,1.35
"ex748",-0.21,-1.04,0.76,1.10,-0.02,0.65,-1.08,-0.34,-0.40,1.25,2.60,5.05,3.71,5.99,5.56,2.67,5.66,2.29,-0.50,1.30,0.50,2.54,-0.63,0.72,-0.16,1.42,-1.51,-1.99,0.38,0.28,2.72,-0.55,-0.66,1.19,-1.36
"ex749",1.08,0.30,-0.15,2.43,3.21,3.18,4.64,4.15,4.20,2.97,2.97,2.03,0.49,0.76,0.03,0.36,-0.28,0.99,0.14,-0.28,-1.30,0.22,1.23,-0.07,-2.09,-1.27,-0.03,0.43,0.83,0.48,-0.53,1.38,-0.19,-1.73,0.27
"ex750",0.40,0.13,1.49,1.45,0.57,0.48,-0.28,-0.23,-1.08,1.04,1.40,2.00,2.67,4.44,7.67,3.12,6.12,3.62,0.39,-1.74,0.74,0.41,-0.79,-0.35,0.21,-0.10,-1.30,1.38,-0.02,1.56,-0.70,0.65,-0.49,1.90,1.23
"ex751",0.31,-0.92,-0.13,-0.59,1.88,-0.07,-0.75,2.44,1.06,4.17,4.07,3.58,6.47,4.97,3.34,3.28,2.03,0.62,2.03,0.00,0.30,0.45,-1.46,-1.21,-0.77,-0.67,0.26,0.61,1.72,0.54,1.14,-0.39,0.56,-1.03,0.39
"ex752",0.51,-0.10,2.54,2.04,3.30,4.11,2.76,3.36,3.51,1.19,2.83,1.05,1.84,3.04,2.76,1.82,2.18,1.75,0.89,1.38,1.04,1.18,2.07,0.24,0.38,-0.78,0.86,1.20,1.66,-0.82,-1.23,-0.77,1.84,0.24,-1.27
"ex753",0.38,-0.34,2.18,3.16,2.62,4.60,0.85,2.84,2.32,1.38,1.72,1.92,2.96,2.02,2.71,2.13,1.20,2.89,-0.11,0.19,1.22,0.41,1.12,-0.85,0.10,0.27,-0.53,-0.04,0.13,-0.55,-0.35,-0.11,-0.94,-0.60,-0.02
"ex754",-0.90,0.38,-0.22,-0.48,-0.71,-1.47,2.59,1.27,0.99,3.16,3.44,3.05,2.86,4.49,6.25,2.64,2.63,2.83,0.66,1.54,0.36,0.69,-0.80,-2.02,-0.65,-1.19,0.04,-0.39,-0.51,-1.64,0.07,-0.43,0.77,-0.23,-1.56
"ex755",-0.28,-0.51,-0.39,-0.05,-0.35,-0.04,0.09,1.92,-0.60,1.74,1.65,2.07,4.96,3.70,6.24,4.67,3.17,1.34,0.06,0.68,-1.02,-0.33,0.04,1.83,1.47,0.44,-0.99,-0.62,0.66,-0.57,-0.32,0.71,0.10,0.31,-0.46
"ex756",0.24,-0.78,1.43,-0.53,-0.76,-1.01,-0.12,-0.83,-0.56,0.38,2.04,0.14,4.06,4.55,5.08,3.98,4.81,2.30,3.10,1.45,0.36,-0.97,-0.84,0.43,1.40,-1.32,-1.79,-1.02,-0.49,1.09,-0.64,0.25,1.12,-2.30,0.76
"ex757",0.15,-0.11,1.21,-1.41,1.36,0.90,3.14,2.35,3.88,6.66,5.85,4.67,2.45,1.95,1.19,1.40,-0.29,1.09,-0.17,-0.35,1.21,-1.27,0.97,-0.46,0.43,0.39,-0.83,-1.76,0.27,1.65,-0.56,1.09,0.12,-1.80,1.63
"ex758",-1.35,2.32,1.37,0.30,1.00,2.79,3.41,2.95,3.73,5.02,5.23,2.94,3.12,-0.26,-1.55,-0.77,-0.81,-0.50,0.54,-0.11,-2.12,-0.94,0.71,-0.26,1.27,-0.07,0.12,1.84,-1.45,-1.15,0.75,0.84,0.86,-0.43,0.93
"ex759",2.30,0.92,2.95,2.92,2.18,5.61,6.92,3.75,3.53,4.56,1.77,2.34,1.69,0.48,-0.20,1.65,1.70,0.35,-0.22,1.48,0.41,-2.17,-1.29,-0.86,-0.77,0.98,0.62,0.69,2.77,-0.39,-1.11,0.97,0.87,-0.33,0.43
"ex760",-0.24,3.25,0.86,0.93,-0.34,0.89,1.60,2.74,3.79,3.57,5.98,4.31,2.74,3.52,2.76,1.09,0.72,2.29,-0.18,1.31,-0.09,-0.31,-1.25,-0.52,-1.37,-0.40,-0.07,0.34,1.44,0.90,-1.15,-0.28,-0.07,-2.64,-0.86
"ex761",0.08,0.21,-2.35,-0.21,0.62,0.43,1.52,0.98,0.24,2.49,2.90,2.47,4.21,3.70,5.58,5.32,4.32,2.16,-0.10,1.35,-2.21,-0.00,1.46,1.38,-1.13,1.73,-0.69,0.67,-0.16,0.54,-0.09,0.23,0.52,1.16,-1.07
"ex762",0.56,1.20,2.51,1.51,3.24,3.60,5.44,5.66,4.82,2.61,1.62,1.81,1.48,0.64,1.28,1.03,0.72,0.79,-0.54,1.26,-1.32,-0.51,0.58,-1.64,1.19,1.47,-0.42,0.16,-0.53,0.72,0.94,1.00,1.65,0.62,-0.89
"ex763",1.32,0.01,2.35,2.34,3.84,1.99,4.47,3.57,2.70,2.42,2.47,1.48,2.11,2.03,2.22,2.76,1.19,0.55,-0.30,-0.00,-0.39,0.13,-1.08,0.25,1.14,0.20,-0.58,-1.29,2.14,0.84,-0.78,-0.63,-0.76,0.16,-0.60
"ex764",0.03,1.79,1.03,1.56,0.62,2.01,3.95,4.94,2.88,3.54,4.47,2.73,3.38,1.51,3.17,0.14,0.40,-0.66,0.47,0.99,-0.51,0.74,-0.74,-0.55,-1.47,1.92,0.43,-1.31,0.23,-1.87,0.60,-1.78,-0.29,0.44,-0.59
"ex765",0.25,1.03,0.90,1.44,1.21,0.39,1.44,1.69,-0.21,1.76,1.59,1.83,2.86,2.81,4.26,2.26,2.06,3.10,1.27,0.98,0.78,-1.04,0.37,0.03,0.67,-0.10,-0.48,-2.50,-1.23,-0.46,0.31,0.20,1.22,0.19,-1.40
"ex766",-0.03,3.16,1.49,3.62,1.94,2.47,3.56,4.72,2.89,3.04,3.12,1.33,1.13,1.37,2.17,0.40,0.74,0.44,0.52,-1.54,0.42,-0.66,-0.56,-2.69,0.49,-1.27,1.05,1.22,-1.49,-0.57,1.16,0.35,1.11,0.86,2.57
"ex767",0.59,-2.63,0.34,1.44,0.05,2.92,0.92,1.03,2.62,4.16,6.09,5.60,2.92,4.82,1.10,0.98,-0.05,0.40,-0.57,-1.88,-1.78,0.34,-0.52,-0.14,0.69,1.60,0.32,-0.95,0.18,-0.64,-1.87,-0.76,0.22,0.20,0.18
"ex768",-0.25,-0.18,-1.26,1.35,0.89,-0.13,-0.83,0.97,2.34,3.59,4.94,4.30,3.52,4.79,4.30,3.19,1.20,-0.10,1.65,-1.11,0.69,-0.53,-0.15,1.24,1.26,-0.81,-2.00,-0.58,0.53,-0.92,-0.19,-0.12,-0.52,-0.46,0.82
"ex769",1.25,-1.57,-0.14,-0.32,-0.98,1.36,0.09,1.33,0.20,2.13,1.83,4.28,3.91,3.62,4.61,4.20,2.94,3.39,0.41,1.08,-0.51,-1.43,0.89,-1.24,-0.13,-0.47,-1.00,-0.97,-0.55,-0.59,0.98,-0.75,-0.10,-1.17,0.31
"ex770",1.59,1.27,2.52,2.04,4.23,5.47,6.24,5.62,3.72,1.83,1.61,1.57,0.09,1.63,-0.84,1.56,2.19,-0.06,1.36,2.31,-1.28,1.03,-2.36,0.68,1.14,0.95,1.41,0.45,-1.43,0.58,-0.09,0.94,-0.54,2.09,1.51
"ex771",-1.20,0.03,0.08,1.97,0.10,-0.00,0.46,2.70,3.49,3.47,3.19,4.62,2.81,3.93,4.74,2.98,0.44,1.98,-0.03,-0.50,-1.12,0.39,0.22,-0.07,0.97,-0.83,-0.20,0.89,-0.76,-1.45,-0.48,-0.41,0.81,-2.06,0.99
"ex772",0.36,-0.80,1.50,0.53,-1.44,1.57,-1.28,1.37,3.46,4.63,3.78,3.67,4.63,4.27,2.89,1.76,1.92,1.26,0.08,2.46,2.43,0.39,1.73,1.00,0.45,0.00,0.78,1.28,-0.70,0.40,1.51,-2.40,-2.10,-0.02,-0.38
"ex773",0.35,1.26,-0.07,2.87,1.48,3.92,4.24,1.13,1.25,-0.14,2.99,3.48,2.10,4.54,3.61,3.96,2.81,2.10,0.63,2.33,-0.57,-2.12,0.30,-0.92,-0.72,1.34,-0.40,0.14,-0.71,0.75,0.07,-0.24,1.07,0.60,-0.11
"ex774",0.52,-0.28,1.54,0.64,0.26,0.98,0.98,0.30,0.65,0.57,1.60,1.60,2.87,3.96,6.22,3.81,3.27,0.64,1.31,1.05,-0.28,0.32,0.75,-0.64,-1.26,-0.98,-0.82,0.28,0.26,0.95,-0.07,0.06,-1.39,1.27,0.10
"ex775",1.04,1.25,1.61,1.10,0.84,1.90,3.42,4.24,1.23,0.83,0.17,3.93,1.54,3.13,3.02,2.89,2.11,1.35,0.16,-0.01,0.33,0.51,-0.39,1.21,-0.96,0.98,-0.96,0.99,2.56,-0.54,-0.96,0.60,0.93,0.55,-0.86
"ex776",1.29,-0.22,1.64,1.08,2.56,3.33,4.72,3.75,2.92,4.16,3.26,1.46,1.95,0.69,0.48,-0.31,-1.71,-2.08,0.16,-2.80,0.80,-0.72,-0.41,-0.44,0.27,0.03,-1.81,0.33,0.79,0.19,-0.51,0.14,-0.20,1.50,-0.23
"ex777",-1.05,0.45,0.27,1.90,-0.57,-0.54,0.17,1.07,0.12,-0.54,3.38,3.07,3.62,2.93,5.58,5.62,4.88,2.17,2.66,2.09,-2.21,-0.18,0.18,0.43,-0.78,0.93,-0.51,-0.06,0.86,0.61,-0.10,-0.13,0.29,0.93,-1.11
"ex778",-0.08,-1.02,-0.15,0.51,0.32,1.28,0.22,1.97,-1.50,4.36,3.73,3.69,5.41,4.61,2.62,3.64,1.72,-1.11,0.76,1.00,-1.30,1.06,0.89,1.77,-1.12,-0.30,-0.77,-0.36,0.05,-1.40,-1.18,-0.50,-1.01,-0.21,-0.89
"ex779",0.83,1.73,-1.03,-0.28,1.55,-0.78,-1.14,-0.44,0.57,1.12,1.46,3.88,3.10,5.46,5.71,3.84,4.69,2.01,1.23,0.84,-1.14,0.21,-0.59,-0.35,1.33,0.12,-0.79,-1.92,0.08,0.54,-1.98,1.60,0.74,0.49,0.25
"ex780",1.59,0.19,0.36,0.51,1.98,2.59,3.33,4.16,4.42,3.33,3.69,3.25,3.50,1.10,1.18,0.83,0.77,-2.78,-2.13,-0.01,0.03,-0.97,-0.01,-1.88,-2.94,-1.16,0.55,-1.17,0.01,0.74,1.51,-0.24,-0.03,0.28,-0.63
"ex781",0.95,-0.28,1.37,0.85,-0.88,0.05,1.87,3.90,3.62,6.49,5.63,5.02,5.28,2.24,1.81,2.13,-0.83,2.39,0.87,0.46,-0.29,-0.02,0.12,1.98,0.23,1.16,-0.53,-0.90,-0.16,0.77,0.66,-0.95,-0.37,-1.55,-1.89
"ex782",-1.55,0.35,2.10,0.85,2.40,7.81,5.29,4.85,3.67,3.43,1.88,0.68,-1.34,0.69,-0.31,1.02,-0.19,2.74,-0.26,-0.74,-0.28,0.03,0.54,0.69,0.85,1.96,-0.48,0.14,-0.54,0.44,2.00,-0.73,0.12,0.29,-1.30
"ex783",1.31,0.03,0.53,0.36,-0.30,1.62,-0.10,2.41,-0.38,1.17,2.49,2.39,3.87,6.80,3.98,4.75,3.19,3.13,3.25,3.29,0.87,1.05,-0.22,-1.75,-0.52,-0.64,0.68,-1.14,-1.45,0.84,0.41,-1.68,0.86,-0.80,1.07
"ex784",0.32,-0.06,0.58,0.20,1.83,1.20,2.22,2.00,1.59,1.16,1.62,2.05,3.26,4.52,4.83,3.17,2.48,1.56,2.20,1.60,-1.17,-0.56,0.43,-1.45,-0.68,-0.15,0.21,2.15,-0.97,0.82,0.15,-0.40,-0.55,0.57,-1.56
"ex785",-0.88,-3.17,0.62,2.35,3.33,3.99,4.00,3.29,1.03,1.59,2.62,0.84,2.61,3.15,3.86,4.07,3.64,1.87,2.49,0.61,1.20,-1.29,0.67,2.27,0.39,-1.28,-0.14,1.37,-0.98,-0.58,0.93,1.00,0.87,-0.51,-0.31
"ex786",-0.31,-0.85,0.01,-1.03,-0.63,1.68,1.29,2.21,4.58,3.99,4.04,5.02,4.93,2.66,4.09,1.26,1.45,1.79,-0.29,1.87,-2.08,-0.52,-0.34,-2.27,-1.55,0.40,0.48,0.83,2.60,0.02,1.71,0.89,-0.32,0.80,-0.43
"ex787",-0.74,-1.62,-1.71,-0.10,-0.38,-1.34,0.60,-0.13,-1.28,-0.11,1.87,4.20,4.34,4.74,5.24,2.51,2.18,1.79,1.12,-1.25,-0.11,0.71,-1.11,0.09,0.49,-1.18,0.87,1.06,-0.10,0.82,-0.85,0.10,-0.86,0.71,0.31
"ex788",1.23,0.00,1.85,2.35,0.31,-1.20,1.23,1.22,0.15,1.49,1.35,1.63,5.10,6.77,4.78,4.51,3.49,3.96,3.03,0.33,-0.94,-0.99,-0.14,-1.51,0.99,0.78,-0.60,0.87,-1.12,1.36,-0.61,0.32,-2.52,0.39,0.77
"ex789",0.94,0.76,-0.39,0.50,1.26,0.67,-0.27,1.16,1.28,0.61,2.61,4.68,3.92,6.06,4.61,4.77,4.42,0.80,2.45,1.08,0.22,1.09,0.61,-1.66,0.78,0.66,0.51,1.14,0.33,-0.49,-0.00,-0.81,0.80,0.37,-0.68
"ex790",-0.21,0.86,-0.14,2.22,1.46,3.45,4.62,1.49,1.93,1.25,0.49,1.03,-0.39,1.56,0.70,2.27,0.35,1.49,3.45,0.89,-0.41,0.36,-1.55,0.18,1.55,-0.37,-0.32,0.39,-0.60,-0.77,-0.49,-1.79,1.04,-0.11,0.87
"ex791",1.36,-0.08,0.65,-0.59,-0.07,1.63,0.16,1.29,1.13,0.37,1.53,0.77,4.61,7.18,4.75,4.95,3.40,3.04,1.23,1.53,-0.14,-0.59,-0.99,1.45,-0.01,-0.05,-0.64,1.27,-1.17,0.31,-1.25,-0.26,-0.52,-1.89,-0.28
"ex792",0.79,0.86,1.36,1.53,0.89,3.94,3.46,3.27,4.76,4.80,4.98,2.41,2.01,2.80,2.05,0.89,-0.49,1.13,-1.44,-1.27,0.90,-1.56,0.74,-1.41,-0.38,0.49,-0.69,-1.06,-0.39,-1.17,-0.03,1.84,1.22,-1.64,-0.66
"ex793",-0.18,-1.27,-0.24,-0.55,0.19,0.84,2.21,1.47,2.35,2.50,2.58,2.21,5.26,2.30,5.00,2.87,3.05,3.44,1.93,-1.59,-0.96,-1.19,-0.29,1.90,-0.09,-0.58,1.02,-0.75,-1.63,0.43,1.32,-0.03,-0.83,-0.30,0.14
"ex794",-0.63,0.29,0.30,3.20,2.60,6.55,4.12,4.58,3.08,4.48,2.26,2.24,-0.67,-0.32,0.24,-0.37,0.38,1.43,0.02,-0.48,-0.52,0.42,-0.26,0.63,0.17,-0.76,-0.62,0.42,-0.30,-0.99,0.38,-0.36,-0.56,-0.37,-0.63
"ex795",-0.86,1.26,-0.60,1.15,2.54,3.30,4.27,4.06,3.77,1.87,3.01,1.15,1.91,-0.58,1.30,1.04,0.21,1.45,1.03,-0.67,0.66,-1.31,0.17,0.72,-0.65,1.44,0.97,1.35,-1.43,1.55,-0.86,-1.42,0.22,1.50,-0.02
"ex796",-0.14,0.83,-0.61,0.92,0.80,0.10,0.40,-0.22,1.74,1.25,3.68,3.31,3.10,5.00,5.30,2.19,2.33,3.57,0.72,1.17,0.80,2.13,1.39,0.40,-0.09,1.40,0.86,0.04,-0.34,-1.16,2.17,0.16,-0.54,0.68,-1.00
"ex797",0.79,1.53,1.99,2.13,3.94,4.89,4.23,4.26,3.21,2.96,3.28,0.51,1.70,-0.58,0.89,0.14,0.06,1.14,-0.89,1.80,1.22,1.36,1.74,-1.73,-0.60,-0.27,0.11,-1.18,-0.66,1.05,0.07,-0.36,-1.56,-1.69,-1.54
"ex798",-1.24,0.77,0.82,1.16,4.18,6.76,7.46,5.78,3.84,2.91,-0.15,-0.07,-1.66,0.51,-0.88,1.00,-0.53,0.92,-1.40,-0.38,-0.16,-0.74,-0.45,-0.56,-0.96,0.32,-1.34,-0.43,-1.00,-0.27,1.29,0.54,-1.35,-0.16,-0.51
"ex799",-0.24,-0.69,-0.63,0.99,0.11,0.02,1.88,1.10,2.20,3.19,4.05,3.20,3.75,5.36,4.34,3.32,1.87,1.88,1.97,1.25,1.37,0.32,0.73,-1.49,0.24,-0.68,-1.34,0.05,1.59,-1.20,0.30,-0.03,0.25,0.26,-1.20
"ex800",-1.28,-1.02,-0.34,0.84,-0.17,0.22,0.20,2.05,1.05,2.68,1.29,6.12,3.27,2.71,5.83,3.99,3.28,1.88,1.83,3.18,-0.17,0.38,0.03,0.86,1.58,-0.12,-1.29,-0.21,-0.45,-0.40,1.17,-1.48,0.45,0.91,-2.38
"ex801",0.73,0.13,-0.14,1.12,2.80,1.08,0.61,1.55,3.29,5.21,4.87,4.25,4.45,2.81,1.74,0.34,2.02,0.24,-1.06,0.05,0.28,-1.99,-1.86,-2.26,1.16,2.59,-0.61,0.39,0.40,-1.26,-0.88,1.92,-0.12,-0.32,-0.34
"ex802",-0.77,0.42,2.18,4.68,2.59,4.69,4.86,6.56,3.37,1.14,1.65,2.05,0.77,2.79,2.29,1.73,1.47,0.56,0.51,0.69,1.17,1.35,-1.07,-0.07,-1.59,-1.04,-0.21,-1.09,-1.67,0.54,-0.36,-0.08,0.66,1.15,-0.34
"ex803",1.88,0.61,1.30,1.57,3.41,2.98,4.01,3.18,2.35,2.03,1.65,0.66,2.53,0.66,2.15,1.50,1.35,0.50,0.14,-0.86,-1.21,3.72,0.02,-0.46,-0.77,-0.08,-0.16,-0.49,1.53,-0.70,1.14,-2.00,2.14,-0.27,-0.58
"ex804",-1.43,-0.61,-0.05,-0.62,1.73,3.62,4.35,3.10,2.69,1.43,1.19,2.87,-0.38,2.18,1.55,2.47,1.64,0.34,1.60,0.24,0.44,-0.03,0.05,-2.31,0.40,-0.05,-1.16,-0.52,1.80,1.51,0.32,0.30,0.17,0.09,-0.97
"ex805",-0.37,0.60,0.31,0.01,0.06,0.26,1.37,0.95,-0.70,2.12,2.18,4.91,4.36,3.91,7.24,3.02,3.19,-0.22,1.84,1.17,0.79,1.51,0.08,-1.26,-1.79,-0.82,-0.36,1.34,-0.66,-0.33,-1.54,1.64,0.18,-0.43,1.44
"ex806",1.96,0.45,-0.59,1.28,0.61,1.13,0.18,1.27,0.81,3.77,3.09,2.78,3.16,5.85,4.64,4.89,2.75,2.22,2.61,1.78,-0.37,-2.50,-0.05,2.66,0.36,0.25,0.42,0.05,-1.44,0.26,0.41,0.03,1.03,-1.56,0.63
"ex807",-0.23,-0.80,0.74,2.07,2.97,1.22,2.95,-0.19,2.88,1.14,0.88,2.97,2.81,4.34,6.17,2.60,2.52,1.94,0.22,0.81,-1.35,-1.53,1.26,-0.04,1.55,0.92,-1.16,1.05,1.07,-1.14,0.85,0.07,-0.06,1.17,1.08
"ex808",0.80,0.41,-0.33,2.66,0.95,4.48,5.35,3.32,4.86,5.76,2.86,3.91,1.04,0.68,-0.54,0.70,-1.38,0.17,1.75,-1.31,-1.90,0.39,-0.67,-0.79,0.14,-0.20,0.57,0.25,0.26,0.69,-1.88,0.84,0.29,-0.25,0.98
"ex809",0.29,0.50,-0.82,2.98,3.11,2.95,4.69,4.22,3.41,2.76,0.78,0.23,1.67,2.53,1.93,1.12,-0.18,1.18,0.25,0.16,-0.10,1.06,0.61,-2.53,0.27,-0.32,2.10,1.49,0.41,-0.47,0.41,-0.31,0.55,-1.27,-2.08
"ex810",0.98,-1.62,0.79,-1.20,0.17,0.34,-0.98,-0.81,-1.03,-0.23,2.05,2.95,3.79,3.96,6.64,3.93,4.17,2.29,1.68,1.14,-0.88,0.06,-0.44,-1.67,-0.18,-3.06,-1.37,1.26,1.12,-0.52,0.73,-0.98,-1.39,0.25,0.08
"ex811",-0.43,-0.93,-1.07,0.57,0.66,0.27,1.12,3.14,5.81,5.26,5.10,4.43,4.05,2.02,2.41,2.54,0.57,0.81,-0.27,-1.52,-0.89,-0.29,-0.33,2.06,0.41,0.70,-0.68,0.45,-1.26,-0.52,0.23,-0.43,1.34,1.00,0.17
"ex812",0.68,1.53,-0.77,1.14,-0.04,0.73,1.57,2.17,2.71,5.99,5.69,5.37,3.38,2.01,1.72,1.89,-0.34,0.61,-0.95,-1.31,0.32,-2.11,-0.36,0.99,0.50,1.33,0.15,0.55,-0.97,-0.29,-0.72,0.48,0.11,-1.09,-1.51
"ex813",0.52,-0.38,-0.83,0.16,0.86,1.47,1.30,1.25,2.30,2.87,5.23,3.54,2.20,5.20,3.04,2.66,0.69,2.43,-0.13,1.85,-0.59,0.56,-0.70,1.17,0.09,-1.54,-1.01,0.63,-1.56,-0.41,0.97,0.90,-0.73,-1.42,0.80
"ex814",-0.35,0.19,-0.18,2.11,0.61,1.86,1.19,2.67,-0.41,2.18,2.47,3.89,2.95,5.80,3.94,0.99,3.43,1.70,0.10,0.65,-0.56,-0.85,-2.31,-0.59,-2.14,0.25,0.81,0.38,0.37,0.69,-2.42,-0.76,-0.76,-0.45,0.62
"ex815",-0.11,1.55,3.20,4.22,5.78,4.92,4.39,3.71,5.12,4.01,3.08,0.70,0.49,-0.31,0.52,-1.00,1.65,-0.89,-1.20,0.14,-0.41,-0.67,0.58,0.53,-0.33,1.67,0.67,-0.61,0.44,-2.39,0.73,-0.76,-0.81,-0.53,1.68
"ex816",0.17,0.60,-0.19,1.21,0.24,1.07,1.56,2.60,4.09,5.90,3.45,6.29,5.22,4.36,1.94,0.45,0.19,-0.89,-0.45,0.07,-0.96,-0.94,1.01,0.72,-0.80,0.81,-0.93,2.92,-0.95,-1.11,0.63,0.85,-0.92,0.47,0.67
"ex817",1.11,-0.49,-1.23,1.16,-0.04,3.18,1.84,3.46,3.15,4.80,6.09,3.97,2.82,2.33,0.92,-0.37,1.04,-0.50,-0.37,2.11,-0.08,-1.04,-1.98,-0.39,1.11,-1.65,0.66,-0.52,-0.68,0.10,0.81,-0.55,0.32,1.17,-0.82
"ex818",-0.83,0.03,1.88,2.49,3.09,4.52,5.14,3.21,2.78,4.01,3.59,0.70,2.64,0.31,1.69,-1.58,-0.28,1.36,0.51,-2.67,-0.97,-0.06,-0.86,0.85,-1.32,1.04,0.59,-1.18,-0.79,0.29,-1.76,1.78,-1.06,-0.56,-1.06
"ex819",0.18,0.22,1.24,3.55,3.47,2.99,5.64,5.39,2.71,2.02,2.16,1.58,0.67,1.31,1.28,-1.15,-1.06,-1.79,-0.72,2.73,-1.36,0.42,-1.44,-2.38,-0.96,-0.53,-0.23,-1.23,-1.09,-0.79,-0.83,-0.08,-0.27,-0.08,-0.19
"ex820",1.51,-1.28,-0.01,0.59,0.11,1.18,2.27,4.64,3.32,2.95,6.35,2.53,2.96,3.72,3.10,0.94,-2.20,0.47,-0.91,-0.12,1.82,-0.18,-1.71,-0.39,-0.38,-1.06,1.52,0.84,0.60,-2.14,-0.35,-1.00,-0.16,-0.88,0.31
"ex821",-0.09,-0.62,0.96,1.67,3.52,2.18,3.40,3.56,0.12,2.22,1.93,2.89,1.77,1.09,2.77,0.39,2.64,3.31,0.57,0.67,1.08,0.08,-0.30,0.04,0.63,-0.41,-0.13,0.22,0.27,0.64,-1.45,-0.54,-0.14,-0.40,-1.28
"ex822",-1.23,1.19,1.63,2.02,3.34,2.94,4.12,2.30,2.96,1.82,2.16,1.76,1.99,2.68,2.80,1.75,1.70,0.44,2.73,1.41,1.40,0.06,1.25,-0.80,-0.14,-0.15,0.46,0.35,2.31,-0.63,1.11,-1.19,0.87,0.67,-0.17
"ex823",0.18,-0.19,0.89,0.74,1.54,1.13,2.88,1.54,0.11,0.85,2.20,1.57,2.75,3.40,5.63,3.94,2.62,3.46,1.60,0.26,0.11,-0.39,1.34,0.63,-0.73,1.29,1.08,0.33,0.50,0.27,-1.18,0.80,0.20,0.85,-0.77
"ex824",0.38,0.64,3.00,-2.11,2.14,1.86,5.41,4.66,3.89,5.09,3.91,3.45,0.82,3.14,1.27,0.16,-1.34,-1.00,-0.45,1.30,1.36,0.88,0.38,-0.22,-0.13,-0.65,-1.62,-0.21,0.08,0.75,-0.54,-0.76,-0.44,-1.80,-0.63
"ex825",1.49,-0.96,-1.62,1.56,-0.19,0.61,4.29,1.84,4.48,4.12,5.94,4.54,3.08,2.47,1.24,-0.67,0.01,1.81,-0.32,0.32,1.16,1.57,1.76,1.55,-0.32,-1.03,0.92,0.02,-1.24,-0.04,0.18,0.82,-0.37,0.07,-1.11
"ex826",1.38,0.71,1.79,2.88,1.99,3.27,3.00,2.57,3.01,3.59,2.61,2.25,2.19,3.39,2.79,2.81,1.36,0.32,0.48,0.27,-0.69,-0.71,-0.08,0.17,1.64,-0.63,-0.57,-0.04,1.80,0.85,1.00,1.23,-0.61,-0.86,-1.30
"ex827",-0.12,1.57,-0.98,0.53,2.87,4.67,5.23,4.46,4.81,2.07,0.90,1.40,0.84,-0.62,0.82,0.87,0.66,0.25,0.44,-0.23,-0.16,0.67,-1.72,-0.92,0.99,-1.32,0.16,-0.72,-1.28,0.22,-1.47,-0.30,1.88,1.81,-0.18
"ex828",0.24,2.63,0.79,1.53,1.75,1.84,4.01,1.48,1.83,2.66,1.59,3.15,3.45,0.25,3.66,1.75,1.56,2.42,0.23,1.68,0.01,-1.51,0.47,-0.67,1.40,0.35,0.21,-1.18,1.20,1.08,-1.65,1.54,1.83,0.91,-1.30
"ex829",0.86,0.79,-0.25,-1.62,0.47,-1.29,1.35,4.82,5.09,5.01,5.68,5.33,4.79,2.43,3.64,1.43,0.52,0.54,-0.17,1.82,0.08,-0.91,0.67,0.41,-1.24,1.43,-0.68,1.69,-0.45,-1.74,0.04,-0.78,-1.21,0.53,0.90
"ex830",0.15,0.36,-0.36,1.11,3.18,1.12,0.73,1.83,2.27,1.55,0.62,1.44,4.77,5.13,4.48,3.55,3.45,1.30,1.15,0.35,-0.17,-0.78,0.30,-0.28,0.21,-0.15,-1.99,1.39,0.63,-1.68,0.41,1.76,0.50,-0.44,-0.05
"ex831",-0.55,0.21,-0.52,-0.29,0.53,-1.64,-0.13,0.70,1.70,0.12,1.45,3.37,3.08,3.40,7.18,5.77,6.23,3.33,2.81,3.51,-1.46,-2.03,0.35,-1.22,-0.35,-0.20,0.99,-0.52,0.62,-0.60,1.81,1.43,1.11,0.99,2.17
"ex832",0.68,-0.78,-1.26,1.81,-0.42,1.64,1.46,1.03,0.96,1.92,1.80,3.33,4.88,5.13,3.89,6.26,2.84,5.12,0.52,0.48,0.92,0.42,0.04,0.31,-0.55,-2.34,-0.19,-1.02,0.46,-0.11,-0.01,0.56,0.10,-0.39,-0.28
"ex833",0.57,0.43,1.30,1.73,0.54,-0.01,0.84,0.55,1.15,3.62,2.97,2.63,5.26,4.57,4.42,3.65,3.81,2.26,0.79,0.54,-0.16,0.74,-1.38,-0.94,-0.38,-0.49,1.94,0.79,-0.19,-0.29,-0.04,-0.08,0.15,-0.35,-0.00
"ex834",-1.52,1.04,-0.32,-1.05,-0.09,0.26,-0.54,1.91,2.01,3.69,4.37,3.53,4.12,3.91,4.24,3.29,2.45,1.37,-0.93,1.93,-0.35,0.80,-0.29,0.46,-0.24,-0.50,-0.78,-0.98,-0.03,0.08,-0.39,-0.08,-0.50,-1.44,0.76
"ex835",-0.63,-1.06,0.73,1.93,-0.77,3.71,4.11,3.50,1.06,1.61,0.91,1.91,2.52,3.69,3.25,2.11,4.56,2.12,1.10,-1.14,-0.36,-1.66,-0.87,0.72,-0.63,0.39,1.01,-0.96,0.13,0.03,-1.66,0.11,0.42,0.07,0.41
"ex836",-0.85,-0.03,-1.11,1.36,0.64,-0.48,-1.49,1.93,2.16,3.06,3.30,5.74,3.67,6.28,4.40,4.85,2.43,1.33,0.05,-0.17,0.11,0.77,1.15,0.68,-0.96,-0.46,-0.46,0.60,-0.26,-0.12,0.99,-0.20,-0.39,0.41,-0.65
"ex837",-0.30,0.43,0.77,0.35,0.68,1.96,0.28,1.67,1.07,2.73,3.48,3.55,6.06,5.27,5.09,5.06,0.54,1.94,1.91,1.63,0.82,1.64,0.36,-0.11,0.30,-0.87,-1.46,0.95,-0.98,-0.78,-0.27,1.40,0.36,-0.77,-0.30
"ex838",0.13,0.66,-0.50,-0.01,0.94,-0.35,0.78,0.72,0.61,4.19,4.59,3.95,3.89,3.61,3.93,3.99,1.83,0.16,0.77,0.82,0.04,2.53,-0.99,1.23,0.20,-0.19,-1.88,-0.21,-3.02,0.03,-0.53,-1.92,-0.09,0.18,-2.25
"ex839",0.36,1.20,2.75,3.17,4.11,2.29,4.42,6.10,3.11,2.10,2.75,0.18,0.66,3.40,1.45,2.10,2.28,-0.56,1.96,-0.27,0.83,-0.18,0.16,1.03,-1.24,0.74,0.20,-1.05,-1.25,1.08,1.36,1.01,1.03,-0.39,-1.44
"ex840",-1.30,-0.85,0.03,2.56,0.14,1.52,1.73,3.17,5.04,5.23,5.66,4.65,4.90,1.26,2.75,3.44,-0.77,1.05,-0.20,0.06,1.66,-0.45,0.89,-0.40,-0.62,0.65,1.11,-2.19,-1.20,-0.07,0.35,-0.23,0.75,2.89,0.38
"ex841",0.30,1.12,-1.29,-1.53,0.69,2.25,-0.26,2.00,0.68,1.42,3.27,5.41,2.15,4.22,5.38,5.61,2.09,2.47,1.25,2.50,-0.26,0.45,-0.15,1.61,0.02,0.41,-0.08,1.16,1.21,1.75,0.03,-0.24,-0.28,-0.82,0.02
"ex842",-0.71,1.00,1.98,1.78,2.20,2.27,2.02,3.48,2.93,5.63,5.84,5.45,1.75,2.98,1.71,0.47,1.12,1.00,0.27,1.35,1.70,0.25,0.45,1.81,-0.35,0.14,-0.07,1.00,0.40,1.74,-0.74,0.57,0.23,-0.90,-1.48
"ex843",0.78,-0.35,1.35,3.60,3.57,3.94,4.06,5.73,1.57,4.23,0.16,1.11,-1.52,0.23,1.40,-0.46,-0.44,-0.15,1.64,0.16,-0.05,-0.05,1.60,0.09,0.09,2.01,1.24,0.05,0.12,0.23,-0.01,1.29,-2.74,1.02,0.50
"ex844",0.56,2.02,-1.52,0.79,-0.53,-0.88,-0.42,2.48,0.50,2.76,2.13,3.59,5.69,4.16,5.11,3.24,3.20,0.70,1.07,1.87,1.32,1.43,0.63,0.16,-0.30,0.39,-0.04,-0.96,0.02,0.98,0.77,-0.00,-0.53,0.99,-0.35
"ex845",-0.41,0.66,1.68,0.46,1.14,2.81,3.99,3.50,1.80,3.02,5.03,2.52,2.52,4.05,1.55,0.74,-1.33,0.65,-0.04,0.04,0.37,0.31,1.02,0.13,0.61,-1.90,1.49,0.52,0.12,0.67,-0.15,-0.73,1.50,-0.08,0.69
"ex846",-0.17,1.12,3.12,0.81,4.08,4.69,6.05,5.41,5.25,1.63,3.25,0.76,1.56,1.20,0.50,-0.48,0.08,0.84,-1.17,-1.76,-0.39,-1.38,-2.50,-0.53,-1.29,0.53,-0.26,0.17,-0.22,0.17,-0.81,-1.35,-0.77,-0.03,0.43
"ex847",-1.05,-0.58,2.81,0.19,0.43,0.97,-0.96,0.28,1.19,-0.02,2.48,3.26,5.96,3.41,3.63,6.52,3.81,2.38,1.56,0.79,-1.32,-0.72,1.13,-0.08,-0.51,0.53,-0.07,0.09,0.31,0.55,-1.46,-0.65,0.86,0.76,0.90
"ex848",-0.26,1.40,1.83,3.83,2.30,4.63,6.94,5.99,3.47,1.04,2.36,0.55,-0.69,0.18,1.18,0.49,-0.63,0.84,-1.98,-0.34,1.12,1.33,-0.27,-1.69,-0.23,0.39,-0.11,-0.52,0.98,0.27,0.03,1.87,-0.01,1.11,-1.70
"ex849",0.13,0.01,1.12,2.69,1.45,1.48,3.17,3.06,0.18,3.43,1.65,2.61,4.07,2.77,3.04,3.26,0.91,2.22,0.89,-0.16,0.02,-0.88,0.18,0.40,-1.51,0.95,-1.47,-1.98,0.46,-0.16,-1.11,-0.91,-0.01,-0.32,1.07
"ex850",0.09,-0.81,1.28,-0.53,-0.50,0.06,1.32,2.36,2.00,2.77,3.89,4.30,3.29,3.00,5.01,5.30,2.58,1.48,1.45,0.26,1.71,0.38,0.18,0.73,-0.75,-1.45,0.01,0.51,1.00,0.68,0.39,-1.00,1.85,-0.58,-0.34
"ex851",-0.56,0.06,-0.21,-0.48,3.18,3.40,2.26,2.70,1.12,0.88,0.64,1.50,1.31,2.44,0.49,1.18,1.78,-0.15,2.30,1.09,1.39,-0.12,-0.77,0.71,-0.68,0.20,1.02,-0.23,0.40,1.46,-0.62,1.42,-2.05,-1.19,0.25
"ex852",0.26,0.02,0.15,1.65,1.83,2.37,1.07,2.47,0.61,2.14,2.64,1.14,2.37,2.60,3.51,1.98,3.40,1.01,1.87,1.05,1.25,-0.40,1.14,1.24,-0.42,0.16,1.25,0.00,1.82,0.11,-0.21,0.18,-1.79,2.36,-0.92
"ex853",-0.40,1.05,-1.21,-1.10,0.90,0.31,-0.09,0.28,1.42,-0.12,3.25,3.54,4.77,4.41,5.24,4.81,3.49,1.55,1.23,1.83,0.19,-0.03,0.43,-1.30,-0.23,0.88,-0.41,0.14,-0.22,0.26,1.20,-0.02,-0.27,0.03,-0.30
"ex854",-1.74,0.85,-0.40,0.22,-0.65,1.37,0.53,0.82,3.14,4.40,3.65,3.96,4.08,2.82,3.63,2.36,0.67,0.45,0.79,-0.41,0.32,-0.81,-1.09,0.53,-0.56,-1.29,-0.44,-0.55,-1.31,0.34,-0.50,-0.22,0.13,0.20,0.20
"ex855",1.01,1.30,2.53,0.93,2.98,3.82,5.82,3.74,3.90,2.88,3.01,1.15,-0.40,0.79,-1.89,2.17,0.29,0.92,-1.81,-1.82,0.96,0.26,-0.77,2.62,-0.53,-0.07,-0.26,-0.45,0.22,0.46,-1.68,-0.32,0.04,-1.51,-1.80
"ex856",1.12,-0.59,0.71,0.65,-1.53,0.27,1.89,3.63,4.16,5.21,7.36,4.49,4.04,4.47,1.71,1.44,0.66,-0.81,1.58,0.40,0.33,-2.64,0.28,0.47,-0.68,-0.19,0.72,0.91,-0.40,-1.05,-0.21,0.08,0.46,-0.42,-1.30
"ex857",1.35,-1.16,1.00,0.69,1.44,1.05,1.95,0.26,1.95,0.49,2.54,3.35,3.71,4.61,4.51,4.73,2.47,3.31,2.89,1.97,-2.20,-0.39,0.06,-0.86,0.64,1.62,-1.75,1.80,-0.05,0.10,-0.43,1.19,-1.80,0.48,0.68
"ex858",0.10,0.68,0.05,1.07,0.22,-0.00,2.11,2.00,4.06,4.64,5.48,5.06,4.42,2.40,3.80,0.23,0.77,-0.51,-1.02,1.11,0.85,-0.24,0.87,1.37,1.30,-0.18,-0.64,-0.26,1.42,-1.50,-0.57,0.89,0.76,0.30,0.15
"ex859",0.14,0.78,0.79,0.35,-0.47,1.01,0.90,3.43,6.09,4.97,3.63,3.07,3.01,0.94,1.99,1.02,-1.45,-1.08,-1.08,-1.91,-0.53,1.17,-0.16,-0.78,-0.03,-0.10,-0.40,-0.13,1.50,-1.19,0.59,0.15,-0.69,-1.82,1.77
"ex860",0.97,2.71,1.09,2.96,3.85,5.18,7.76,3.88,4.53,2.60,2.09,-0.33,-0.06,0.40,0.01,-0.75,-1.28,0.24,0.65,-2.17,-0.47,-0.28,-0.28,-0.13,-0.48,-0.00,1.16,-0.59,-2.09,0.29,0.81,0.10,-0.59,-0.69,1.89
"ex861",0.10,-0.57,1.64,-0.34,-0.03,0.29,0.90,0.71,0.81,0.03,4.17,5.09,2.53,6.34,5.12,3.28,4.44,3.23,0.21,-1.71,0.23,-0.44,1.23,0.63,-1.14,-0.19,-0.49,1.22,-0.85,-0.65,-0.10,0.08,1.45,1.40,-0.78
"ex862",0.58,0.92,1.07,-0.22,3.80,3.95,4.59,4.37,3.71,1.10,4.13,3.73,0.87,3.62,2.25,1.17,0.84,-1.21,-0.18,-0.19,0.07,0.24,-1.80,0.47,0.84,1.46,0.07,-2.08,0.43,0.30,-2.03,0.76,0.12,1.05,-0.27
"ex863",-0.65,0.56,1.95,4.01,4.38,3.54,5.28,4.88,2.75,3.04,3.21,3.03,0.35,-0.68,2.00,0.27,1.22,1.10,0.12,-0.36,-0.29,-0.87,0.78,1.63,1.49,0.98,0.68,1.24,0.90,-1.21,1.61,1.28,-0.65,0.41,-1.57
"ex864",-0.74,-0.96,0.67,0.33,-0.01,1.76,-0.01,0.63,1.42,1.12,2.59,2.80,1.50,4.78,3.88,3.81,2.54,2.47,0.72,0.74,0.84,0.56,-0.45,0.56,0.87,-0.64,1.15,1.11,0.33,1.18,-1.04,0.67,0.78,-0.57,0.91
"ex865",0.27,0.77,0.52,-2.13,-0.98,1.05,1.67,2.92,2.23,3.37,4.50,5.06,1.30,2.91,3.55,3.37,3.32,1.17,0.84,1.47,0.42,0.51,1.02,1.83,0.66,0.38,-1.07,1.54,-0.04,-0.02,0.24,-1.31,0.42,-0.11,1.22
"ex866",-0.39,0.64,1.61,1.29,4.25,4.95,5.58,5.57,2.97,5.67,2.11,1.84,2.05,-0.40,-0.44,1.21,0.22,-0.02,0.15,-0.67,-0.18,1.04,0.29,0.65,0.82,0.49,-0.85,-1.13,-0.62,0.18,-0.51,-0.83,1.08,1.70,-1.88
"ex867",1.13,0.45,-0.84,-0.15,-0.57,0.31,0.97,1.77,0.67,3.87,3.96,5.09,3.76,2.49,4.01,3.25,1.27,0.86,1.77,0.07,0.66,-0.95,0.04,-0.94,1.03,-1.15,0.06,0.69,1.56,-0.65,0.58,-0.59,0.53,0.80,1.05
"ex868",1.17,0.54,1.24,0.82,-0.27,0.32,0.65,0.12,2.06,1.93,2.95,5.88,4.41,4.10,4.21,3.82,3.52,2.04,0.60,1.40,-0.01,1.35,1.25,-0.14,-1.33,-0.23,-0.65,0.12,-0.22,0.22,-0.12,0.81,-0.72,-0.72,-0.00
"ex869",0.22,-0.24,-0.90,1.36,4.37,3.08,2.64,3.86,3.52,1.82,4.07,2.99,1.66,1.12,0.03,0.15,-1.96,-0.46,0.06,1.39,-0.89,-0.16,0.91,0.28,1.03,-0.69,-0.36,0.50,0.99,0.50,-0.25,0.49,1.53,0.71,0.55
"ex870",-0.50,2.05,2.24,2.36,2.38,1.19,2.60,4.28,0.72,0.28,0.73,3.20,3.07,1.77,3.38,1.13,0.37,1.50,-0.17,0.25,0.64,1.84,0.48,-0.47,0.82,-2.28,-0.88,0.46,-0.66,1.49,-0.63,-0.13,0.85,0.90,-0.68
"ex871",-0.21,0.77,0.79,0.34,0.64,-0.89,1.17,1.05,3.38,3.82,5.35,3.80,4.09,3.60,2.43,2.91,1.93,1.33,0.61,1.63,0.33,-0.97,-0.73,-0.39,0.11,-1.60,-0.21,-1.32,0.30,1.10,-0.31,-1.69,0.89,-0.01,0.56
"ex872",0.52,1.44,1.55,-0.34,1.95,2.08,3.29,3.31,3.97,4.73,5.15,3.41,1.95,3.75,1.51,1.07,1.11,0.70,-0.23,-0.15,-0.17,0.35,1.28,-1.32,0.31,1.05,-0.36,-0.67,-0.85,-1.31,3.03,0.72,0.76,-1.31,0.59
"ex873",-1.73,-0.22,0.64,-1.08,0.33,1.48,0.69,2.66,3.19,4.39,4.91,4.33,3.22,4.38,2.13,3.02,2.14,0.24,0.80,1.02,0.54,-0.63,0.20,1.09,0.84,-1.57,0.36,0.49,-0.33,-2.02,1.27,1.29,0.08,0.03,-0.07
"ex874",0.14,0.75,1.41,-0.47,1.00,2.79,4.17,3.07,3.18,2.59,1.93,1.33,0.95,1.55,3.41,3.86,0.63,0.48,2.52,-0.73,-0.61,-0.11,0.60,-1.36,0.86,-0.20,-0.64,0.18,0.68,-0.19,-0.32,-0.39,0.15,0.11,0.45
"ex875",-2.29,-0.53,1.24,0.66,1.09,3.84,4.67,4.41,4.13,4.08,3.68,2.91,1.56,2.41,1.97,0.25,-0.54,-0.44,0.80,-0.63,1.18,-0.70,1.16,-0.25,-0.20,0.21,-1.93,1.57,0.64,1.69,0.29,-1.89,1.45,-1.44,1.03
"ex876",0.52,2.41,2.40,1.90,1.95,3.19,3.20,3.92,2.11,2.72,2.29,0.85,1.56,-0.04,1.61,-0.27,-0.14,-0.22,-0.10,-0.79,-0.74,-0.65,-0.01,0.21,1.65,0.61,-0.34,1.12,-0.25,-0.02,-0.15,-0.74,0.34,-1.36,-1.87
"ex877",0.35,0.67,1.66,0.62,2.94,4.33,4.45,3.11,4.06,3.28,1.17,2.42,0.96,1.78,1.03,1.05,-2.58,-1.30,0.56,1.02,-0.36,0.25,-0.70,-0.32,-1.73,-1.02,0.00,-0.13,0.74,-0.33,-0.15,0.81,-0.44,0.27,0.88
"ex878",-1.04,1.96,1.06,2.99,3.39,3.87,5.08,3.66,3.82,3.92,2.75,2.60,0.71,0.95,0.94,2.31,-0.33,-0.64,-0.03,-0.08,-0.14,0.12,0.17,-0.84,1.43,0.43,-2.13,0.50,-0.05,-0.03,-0.11,-0.84,-0.23,-0.07,0.76
"ex879",1.06,-0.07,0.79,1.29,-0.56,0.81,-0.32,0.58,-1.25,2.48,1.53,3.75,4.83,5.71,4.54,4.25,4.44,2.39,1.86,4.03,1.53,-0.89,0.63,0.59,2.03,1.17,0.80,-0.53,0.85,-0.58,-0.13,0.05,-0.09,-1.91,-0.47
"ex880",2.29,0.89,1.44,1.87,1.60,3.50,3.30,3.80,0.36,1.66,0.86,2.82,1.28,3.14,2.52,2.38,0.52,0.91,1.44,0.81,-1.31,1.13,-0.90,-0.55,0.58,-0.28,-0.53,-0.61,-1.72,0.20,0.72,-0.77,-1.14,0.38,0.92
"ex881",-1.18,1.15,3.04,3.43,2.72,3.82,4.87,6.55,4.63,5.06,1.94,1.23,0.12,-0.65,-1.79,-2.55,0.04,-1.13,2.00,0.39,1.21,0.23,-0.63,-0.58,-1.17,0.89,-0.53,-0.12,-0.44,-0.39,0.61,1.20,-0.53,-0.99,-0.83
"ex882",-0.69,0.77,3.69,2.60,2.48,6.01,5.29,2.99,3.51,3.05,3.86,2.57,0.61,-0.68,0.06,0.02,-0.69,0.57,1.10,-0.14,-0.63,-0.86,-0.32,-0.58,-0.41,0.53,1.30,1.25,0.67,-0.56,0.43,0.75,0.58,-1.06,1.15
"ex883",-0.66,0.28,-0.77,-0.51,-1.11,0.86,0.54,0.61,1.09,2.97,4.04,4.80,4.79,5.06,5.17,2.95,2.66,1.92,-0.14,0.69,0.95,0.01,-0.15,-0.95,0.85,-0.42,2.30,-1.14,1.22,-0.52,-0.64,-0.59,1.58,-1.37,-1.93
"ex884",0.72,0.32,-0.85,-0.58,0.69,1.82,1.69,2.61,2.70,5.93,5.27,6.25,4.62,1.73,3.39,1.73,0.63,1.19,-0.05,-0.48,0.97,-0.58,0.85,-1.45,0.43,-0.24,-1.98,-0.55,0.61,1.15,-0.52,-0.69,0.47,-0.16,-0.45
"ex885",-0.41,-0.24,-0.51,1.68,0.66,2.32,2.08,1.21,0.71,1.27,3.10,5.21,2.77,5.02,3.85,3.14,2.34,2.82,0.59,0.97,0.28,-1.28,-0.11,-0.95,0.45,0.09,-0.69,-1.02,1.46,-0.59,0.87,-0.92,0.02,0.05,1.91
"ex886",-1.36,-0.17,-0.93,4.04,2.30,4.80,4.15,3.50,3.32,5.31,4.30,1.80,1.23,-0.41,0.79,-0.69,1.80,-1.23,-0.05,-0.86,-0.43,-1.52,0.42,-0.22,-0.41,0.55,-0.80,2.58,-0.09,0.53,0.04,-0.51,1.70,-0.45,-1.16
"ex887",0.25,0.93,1.50,-0.18,1.99,1.37,3.92,2.47,1.64,0.44,3.39,1.99,2.22,3.25,3.54,2.33,1.14,2.51,1.56,-0.01,-0.92,-0.21,1.81,-1.38,0.19,0.17,0.68,-0.34,0.47,-0.80,0.73,0.08,2.09,-0.87,0.56
"ex888",-0.47,-1.21,2.48,0.17,5.33,2.67,5.39,4.22,5.98,3.49,2.93,0.77,2.07,0.16,0.06,-1.17,-1.00,-0.28,0.83,0.62,1.01,-2.07,0.10,-0.66,0.32,0.17,-0.64,0.62,0.42,0.30,0.63,-0.61,0.85,-0.45,0.33
"ex889",-0.69,-0.11,0.72,2.29,-0.43,2.15,3.60,1.99,4.01,1.87,4.76,3.22,3.00,3.13,0.58,-0.43,-0.35,0.13,-1.70,-1.42,-0.11,0.56,1.70,-1.20,-0.19,-1.74,-0.30,1.91,-1.72,-0.83,-1.51,-1.12,-1.20,-0.74,-0.58
"ex890",-2.18,-0.44,-0.18,-0.90,2.19,0.81,1.90,2.03,4.09,5.13,4.57,3.75,4.37,2.21,2.13,0.21,-0.12,1.77,-0.46,0.59,1.02,0.11,-0.55,-1.01,-0.52,-1.35,-1.43,0.78,-1.13,-0.45,1.05,-0.00,0.46,-2.40,0.06
"ex891",-0.31,2.15,1.46,1.32,1.77,1.77,3.51,3.62,3.90,4.63,6.70,3.38,1.58,2.01,0.56,0.14,-1.17,-0.07,-0.04,0.41,-0.81,1.11,0.32,-0.66,-1.42,-0.26,-1.64,1.43,-0.13,1.31,-1.96,2.09,-0.57,0.04,1.78
"ex892",-1.74,-1.08,0.54,3.05,2.11,3.15,4.13,3.87,3.94,4.35,3.72,3.64,3.12,-0.66,1.76,0.48,-0.27,0.18,0.32,-0.25,-1.19,-0.44,1.41,0.33,0.06,1.20,0.15,-0.34,0.37,0.73,-1.37,0.64,-1.28,-0.23,0.39
"ex893",1.09,0.35,-1.14,0.48,1.81,0.89,-0.00,1.12,0.03,0.71,1.17,2.83,4.05,4.95,6.25,4.28,4.96,2.62,0.22,0.84,1.52,0.61,-0.65,0.38,-0.82,-0.62,0.27,-0.53,0.66,1.20,-0.72,0.47,-0.32,-1.47,-1.06
"ex894",-0.10,-0.81,-1.26,0.62,0.27,1.45,2.08,1.53,4.79,4.15,4.93,4.08,3.41,1.82,0.92,-0.23,0.06,-2.68,-1.06,1.78,0.23,0.64,-0.11,0.09,0.53,-0.10,-0.06,-2.28,0.97,-0.05,1.12,0.08,0.09,-0.28,1.42
"ex895",-0.92,-0.68,0.47,3.82,4.89,4.43,5.11,3.30,4.39,3.32,2.22,1.81,1.30,-0.32,2.08,-1.47,-0.71,1.79,-0.08,2.00,0.61,0.04,-1.36,1.73,-0.92,1.14,0.51,0.44,-1.52,-2.49,-0.15,0.81,0.39,-0.16,-0.80
"ex896",-0.23,-0.54,0.83,0.15,1.52,0.06,2.21,3.11,1.22,1.17,1.91,2.35,1.59,5.48,3.24,3.07,2.88,1.61,2.05,1.51,-0.70,-0.92,0.92,-0.12,-0.32,0.21,-0.45,1.51,-1.57,2.77,0.57,0.15,-0.61,-2.57,-0.99
"ex897",-0.46,-0.45,0.89,0.32,0.01,2.05,0.64,-0.59,0.31,0.10,2.65,3.07,4.45,4.20,4.34,3.73,2.11,2.34,1.87,-0.51,-0.99,-0.95,-0.87,0.73,1.48,-0.32,0.39,-0.03,0.52,0.86,-0.27,-0.76,0.35,-1.82,-0.23
"ex898",1.69,0.43,2.15,1.19,4.94,5.72,6.26,3.15,2.46,3.08,1.91,1.68,0.69,0.62,2.71,-0.18,0.86,0.01,1.07,1.54,1.66,-0.06,0.55,-1.66,-1.29,0.41,-0.73,-0.23,-0.62,-0.84,-1.28,-1.70,-0.59,1.25,-2.41
"ex899",0.43,1.22,2.25,0.42,2.73,2.66,5.66,4.29,4.74,3.29,3.08,1.90,2.10,0.23,2.05,-0.37,1.77,1.17,-0.96,0.13,-1.04,0.66,-0.38,1.45,1.01,-0.63,-0.39,-0.13,2.13,1.07,0.70,0.25,2.01,0.14,0.62
"ex900",2.53,-0.14,1.19,0.72,2.40,3.70,5.26,4.87,2.49,2.16,2.46,0.78,1.01,3.03,-1.54,-0.05,0.72,0.62,0.78,-0.42,-0.27,-0.67,-0.11,-0.11,-0.53,-1.24,0.85,-1.05,1.24,0.54,-0.43,-1.24,-1.25,0.36,0.74
"ex901",1.02,0.49,-1.30,1.19,1.06,-0.31,2.45,4.14,4.69,4.35,6.40,5.83,3.05,3.14,1.78,2.32,-0.35,1.17,1.07,-0.65,0.97,0.75,1.54,1.62,0.28,0.62,-1.29,1.12,-0.99,-0.98,1.74,0.34,-0.42,-0.44,0.77
"ex902",-1.20,0.66,1.78,-0.14,2.72,3.71,2.06,3.84,3.99,3.16,3.25,2.50,2.24,3.03,1.10,1.25,0.29,2.10,0.39,-0.08,1.29,-0.53,1.48,0.40,-1.00,0.64,-2.29,0.44,0.56,-0.71,-0.18,-1.03,0.65,-0.99,-0.48
"ex903",0.31,0.99,-1.53,0.51,-0.03,1.32,2.98,1.65,4.62,5.21,4.88,6.03,5.29,3.29,2.44,-0.50,0.30,-0.56,0.11,0.54,-0.09,0.38,0.75,-0.34,-1.13,-1.61,0.03,-1.49,-0.64,0.04,-1.46,0.02,-0.67,0.52,0.37
"ex904",-0.08,0.81,0.84,-0.18,-0.34,-0.83,1.68,2.36,3.22,6.00,5.33,3.52,4.07,3.12,1.38,0.01,-0.23,-0.93,-0.73,-0.10,-0.39,1.66,-0.28,0.99,-0.01,-1.16,-1.45,0.48,0.60,-2.49,2.43,-0.74,-0.02,-1.47,1.49
"ex905",0.69,-0.18,0.88,-0.23,-1.28,-0.81,1.33,2.27,1.70,2.08,5.01,1.84,2.88,3.74,2.56,1.70,-0.52,0.12,1.97,-0.43,-0.67,2.70,-2.08,-1.13,-0.38,1.57,-0.33,0.64,2.10,1.17,0.51,-0.69,-2.18,-0.28,0.80
"ex906",0.40,2.65,1.53,-0.63,0.14,0.18,0.12,0.45,-0.08,3.05,1.47,3.87,2.90,4.67,5.70,6.49,2.13,2.65,0.98,0.91,-2.22,-0.08,-0.36,0.81,0.34,1.94,-0.46,-0.11,-1.77,-1.46,-1.40,-0.17,1.09,-1.59,-0.78
"ex907",1.27,0.54,1.34,-0.51,0.88,0.31,0.77,2.23,3.50,5.51,3.81,4.99,3.39,3.62,2.52,2.62,1.17,-0.99,1.18,0.44,-0.62,-1.67,-1.72,1.68,-0.89,1.61,0.06,-0.49,0.12,0.71,0.91,-1.35,0.13,1.30,1.35
"ex908",0.23,0.32,1.99,2.89,3.57,5.06,3.61,6.02,3.16,2.71,0.86,1.61,0.88,0.85,1.50,-0.73,0.73,-0.99,-0.28,0.04,-0.07,-0.26,0.05,-0.63,-0.62,0.04,-1.45,-0.88,0.60,0.62,-1.34,-0.69,-0.22,-0.64,1.60
"ex909",-0.12,-0.45,-0.52,0.00,-1.22,0.49,1.63,4.27,1.01,5.16,5.52,3.68,4.61,4.82,1.77,1.34,1.08,-0.23,0.74,-0.46,-0.52,-2.11,-0.53,0.58,-0.37,0.89,0.63,-0.36,0.27,0.23,0.55,1.12,-0.53,1.10,0.94
"ex910",-0.29,1.40,0.78,1.29,3.83,4.44,5.93,5.66,3.00,3.68,2.52,0.64,0.37,1.35,1.76,-0.09,-0.13,0.45,0.74,1.72,-0.13,1.82,0.17,-0.37,-0.34,1.08,0.04,-0.26,0.57,1.22,0.31,1.54,0.43,0.39,1.55
"ex911",-0.11,0.85,-0.32,0.43,1.90,3.31,3.12,3.91,3.56,3.87,3.99,5.32,3.66,3.34,2.80,1.58,0.90,0.96,0.06,0.33,0.67,-0.06,-0.86,0.96,-0.62,1.10,0.21,1.48,-1.36,-1.34,0.76,-0.29,-1.56,-0.19,-0.41
"ex912",-0.77,1.64,0.89,0.31,2.09,1.51,1.89,0.97,0.63,-0.57,1.59,4.05,2.56,3.73,4.64,4.54,2.32,2.09,1.14,1.67,0.59,-0.16,-1.30,1.14,-2.20,-0.29,0.19,-0.58,0.42,-0.17,-0.35,1.50,1.58,-0.25,1.67
"ex913",-0.13,-0.28,0.88,0.14,-0.04,-0.04,2.13,2.63,2.54,2.94,6.41,3.94,4.46,4.27,3.82,0.99,2.05,1.51,1.39,0.29,-0.07,0.62,2.10,0.25,1.33,-0.31,-0.51,1.80,-1.42,0.39,-0.12,0.78,1.33,0.31,-1.17
"ex914",-0.80,0.29,2.58,2.16,4.76,5.22,5.21,7.56,2.66,0.33,2.35,0.29,-0.69,1.69,1.66,1.60,-0.95,-0.72,-0.42,0.22,1.87,-0.02,-0.06,0.58,-0.51,-1.24,0.82,-1.31,0.88,0.26,1.79,-0.90,-0.61,-0.67,0.10
"ex915",-0.39,0.42,1.08,0.08,1.10,4.74,5.15,2.54,3.12,5.32,4.95,2.78,0.30,0.96,-0.66,-0.14,0.72,1.84,0.54,1.05,0.50,-0.88,0.29,0.28,0.54,1.64,0.57,0.35,0.55,0.58,-1.52,1.34,-1.75,0.67,0.20
"ex916",-0.52,-0.49,-0.88,1.60,1.51,0.70,1.17,2.34,0.68,2.50,3.81,4.91,4.51,2.86,4.23,2.01,0.72,2.95,-0.49,0.78,0.41,0.30,0.57,-0.63,-0.78,-1.61,-0.84,0.10,1.23,-0.31,1.28,0.12,-0.69,1.27,1.55
"ex917",-0.43,2.00,1.60,4.26,3.29,4.21,4.52,5.27,2.79,3.37,1.36,-0.58,-0.13,0.03,0.74,1.82,0.51,-0.13,-0.90,-0.30,1.00,0.68,0.32,-1.22,-0.25,1.20,-1.82,0.70,-1.99,-1.07,0.57,0.60,0.42,0.65,0.64
"ex918",-1.16,-0.63,0.05,-1.24,1.00,-1.70,0.72,1.22,-0.64,0.70,2.71,4.07,3.94,5.87,5.47,6.52,3.73,1.49,2.24,-0.21,1.42,-0.08,-0.39,0.58,-0.05,0.37,-0.86,-1.17,1.98,1.01,-0.35,-0.99,1.26,-0.34,1.50
"ex919",0.57,1.13,0.25,2.78,0.92,1.94,2.32,-0.02,1.60,1.36,2.66,2.53,1.08,4.71,5.62,3.37,4.67,2.02,1.47,0.79,-0.09,-0.99,-2.04,-0.32,1.52,0.16,0.84,-1.17,1.03,0.20,-1.02,0.36,1.06,0.15,-1.17
"ex920",1.17,0.22,3.78,2.29,3.56,3.83,4.27,6.73,4.09,1.66,1.47,0.96,-1.69,0.48,-0.13,1.73,-0.75,-1.31,0.77,0.04,-0.18,-0.74,-0.51,0.03,-0.10,-1.54,-0.22,0.07,-0.34,0.15,-1.15,0.89,0.21,-0.31,0.63
"ex921",0.86,-0.49,-0.49,-0.95,1.77,2.41,-0.47,0.91,0.35,2.73,2.91,2.64,2.50,4.34,3.79,2.45,1.71,3.25,2.35,1.18,-1.43,-0.23,-1.14,-1.46,-0.48,0.87,0.58,1.32,0.44,1.04,0.37,1.37,-0.08,0.10,0.26
"ex922",-0.80,0.66,0.06,-0.02,0.81,2.42,3.16,2.81,5.81,3.36,3.57,3.61,3.07,1.87,1.47,0.81,-2.09,-1.70,1.40,0.02,-0.66,-1.96,0.81,0.43,-1.97,0.32,0.26,-2.30,-0.10,1.71,-0.21,-0.46,1.03,0.63,1.11
"ex923",0.84,1.84,0.93,1.32,1.48,3.15,3.12,1.44,1.40,1.65,2.48,1.32,1.53,2.13,3.93,3.96,1.96,2.18,0.84,0.77,-1.75,-1.38,-0.04,0.43,-0.03,-0.58,0.15,-1.81,0.06,-0.45,1.05,-2.00,1.84,0.78,-0.50
"ex924",-1.35,1.29,2.32,2.04,3.71,4.72,5.47,4.74,4.42,1.46,3.43,0.72,-2.09,0.24,-0.03,-0.21,-1.61,-1.26,0.62,-0.23,0.74,-0.63,-1.03,-0.99,-0.20,-0.97,0.03,0.70,0.35,0.48,0.87,1.38,-0.49,0.48,-2.09
"ex925",0.37,-0.49,1.83,0.76,3.72,4.22,5.94,4.91,2.56,4.47,2.24,2.86,1.17,1.56,-1.02,0.92,0.55,-1.02,-0.73,0.57,-0.14,0.70,0.59,0.73,-0.77,0.97,-2.59,0.13,1.00,-0.55,0.57,-1.85,-0.44,0.09,-0.08
"ex926",0.42,-0.01,0.52,1.30,0.09,-1.32,-0.33,0.20,2.86,2.22,5.04,0.79,4.12,5.37,4.17,5.51,3.56,1.46,1.19,0.30,0.01,-1.97,0.69,-0.43,-1.01,-0.22,0.66,-0.61,-1.22,-2.26,-1.45,0.24,0.07,-0.50,1.53
"ex927",1.46,2.10,1.24,1.65,2.52,0.96,3.32,1.45,1.54,2.50,1.27,1.50,1.75,3.42,1.53,2.45,1.02,1.97,1.25,0.25,2.05,-0.34,-0.20,0.03,2.00,1.29,0.13,-2.61,-0.37,-0.44,-0.48,1.98,1.41,0.12,-0.48
"ex928",-0.99,1.06,1.90,1.47,0.44,-0.12,0.51,2.32,1.99,2.63,1.66,3.06,4.73,4.53,6.34,2.24,4.84,3.16,2.10,1.26,-1.99,-0.16,1.13,-0.77,1.11,-0.40,0.40,0.61,0.98,-0.91,-1.48,0.04,1.18,1.19,-0.52
"ex929",0.62,0.00,0.84,0.11,0.95,-0.16,0.23,0.31,2.15,3.24,3.52,1.27,3.69,2.66,5.94,4.41,2.11,0.24,1.36,0.80,0.87,0.18,2.75,1.62,0.80,1.12,-0.32,0.86,1.64,0.51,0.70,-0.74,-0.39,-0.08,1.56
"ex930",0.68,-0.26,0.66,2.71,2.04,4.95,4.43,3.16,3.37,1.71,1.74,0.97,2.22,0.05,1.28,-1.64,0.72,0.00,0.30,-0.42,0.86,-1.76,0.09,1.81,-0.86,0.24,-0.85,-0.31,-0.35,0.82,0.29,-0.33,-0.16,-0.63,0.21
"ex931",0.07,-0.06,-2.07,0.91,-0.46,1.02,-0.32,2.56,3.42,4.22,6.90,5.87,5.30,3.59,-0.51,-0.88,-0.63,-0.32,-0.47,1.13,-0.15,-1.08,0.20,-0.26,-1.16,-0.14,-0.86,0.31,0.13,0.47,-1.73,1.20,-0.35,-0.82,-0.94
"ex932",-0.20,-0.92,-1.27,1.91,0.62,0.45,0.24,2.68,1.25,0.91,4.00,3.49,4.10,3.45,5.36,2.57,2.19,1.84,1.82,0.18,-1.20,-0.92,-0.16,-0.96,0.41,0.83,0.96,1.25,0.54,-0.88,-0.35,0.65,0.96,-0.66,1.59
"ex933",-1.76,0.38,2.09,1.61,1.09,2.06,4.65,2.72,2.34,2.93,2.37,1.96,0.33,2.86,2.15,3.43,3.14,1.48,1.17,-0.27,0.29,-0.44,1.17,0.98,0.76,-1.78,-0.99,0.64,-3.28,-2.30,1.55,-1.14,0.56,-0.51,-0.09
"ex934",1.03,-0.78,-0.84,1.71,1.00,-1.02,1.45,0.37,-0.29,1.18,1.79,2.68,4.14,4.20,5.29,3.00,2.07,3.50,3.02,-0.01,1.18,-0.35,0.75,-0.59,0.12,2.01,-0.32,0.75,-0.69,0.87,0.45,0.02,-1.02,2.22,-1.35
"ex935",-1.17,-0.78,0.23,-0.36,1.75,-0.33,1.00,0.02,1.87,4.04,5.06,2.72,3.69,4.63,4.39,2.45,1.50,1.22,-1.10,-1.04,-0.96,-0.67,-1.52,-0.60,0.62,-1.08,0.62,-0.13,1.40,-0.87,1.13,0.26,-1.84,-0.45,0.68
"ex936",-0.57,-0.35,-0.28,-0.18,-0.13,-0.75,-0.07,-2.39,-0.15,2.75,2.23,4.28,3.88,2.96,4.51,4.68,2.90,1.62,1.72,1.77,0.17,0.39,-1.03,1.67,0.71,1.48,1.18,0.48,0.18,0.19,-0.02,-0.88,0.85,-0.53,-1.02
"ex937",0.34,-0.24,-0.21,0.29,-0.45,0.74,2.62,2.14,1.70,1.96,1.89,3.53,3.04,2.21,5.52,1.72,3.34,3.33,0.82,1.44,1.37,-0.68,0.35,-1.17,-1.70,0.49,0.09,-0.25,0.24,1.34,0.75,0.88,0.55,-0.76,-0.43
"ex938",-0.20,0.18,1.63,3.10,3.75,3.69,4.88,2.96,2.44,4.76,3.82,2.81,-0.51,0.16,0.59,-1.85,0.94,-0.15,-0.22,0.13,-1.60,-2.28,-0.14,-0.12,0.57,0.22,0.08,1.13,-0.29,-0.59,-0.76,-0.40,-0.33,-1.33,0.20
"ex939",-0.48,-1.19,-1.54,-0.23,-1.19,2.70,0.15,1.90,4.16,4.10,3.74,4.44,5.01,2.83,3.55,-0.32,0.24,-1.65,1.80,-1.90,0.03,-0.61,-0.48,0.17,0.55,-0.14,-0.64,-2.31,1.06,-0.28,2.26,-0.11,0.71,0.54,0.70
"ex940",-0.63,0.27,3.09,1.19,3.38,3.22,6.02,5.53,4.78,0.59,1.01,2.16,0.81,0.68,1.18,0.05,-0.38,0.45,1.41,-1.35,0.01,0.58,0.46,2.39,-0.79,-0.29,-0.04,0.00,-0.37,1.45,0.27,1.44,0.06,0.62,2.08
"ex941",0.44,1.18,4.48,4.50,3.23,4.26,4.69,4.55,3.58,2.84,0.60,2.20,2.10,0.25,-1.81,1.03,-1.27,0.35,-0.55,-0.88,-0.39,-0.67,1.23,1.77,0.10,-0.31,0.04,0.86,1.50,0.77,-1.18,1.00,0.56,0.32,0.47
"ex942",-2.03,0.36,0.92,2.07,0.72,1.99,1.67,-1.45,0.77,1.85,2.14,2.00,4.91,4.01,4.43,5.46,1.77,2.83,0.28,-1.61,-0.71,0.56,1.19,-1.09,-0.51,0.42,0.76,-1.60,-3.12,-1.06,0.21,0.45,1.10,-0.24,-1.92
"ex943",0.93,-0.41,-2.07,-1.08,1.10,0.64,1.29,4.31,3.00,5.18,5.28,4.93,5.55,4.03,2.27,2.47,0.83,2.95,-0.30,0.81,-0.24,-0.05,-1.17,-0.94,-1.70,-1.86,0.59,0.88,-0.38,0.05,1.43,-0.73,-0.07,-0.40,0.68
"ex944",1.80,1.80,0.12,0.45,1.44,0.67,1.06,0.00,0.88,2.42,2.23,5.24,5.11,4.60,5.00,3.30,2.33,1.31,1.95,-0.13,0.32,1.96,-2.66,-0.96,-0.96,-2.29,-0.96,0.53,0.17,0.10,-0.88,-0.05,0.91,-0.00,-0.48
"ex945",-0.23,-0.29,0.99,3.23,2.55,4.24,5.88,4.34,1.91,2.60,1.52,-0.14,0.72,2.09,-1.49,0.16,0.34,0.39,-1.35,-0.01,-1.05,2.15,0.24,2.21,-0.52,1.26,1.83,1.50,0.84,0.59,-0.93,-0.70,-0.85,-1.16,-0.04
"ex946",-0.50,-0.40,0.72,2.13,3.32,3.42,5.65,3.23,4.57,2.26,1.91,2.37,0.70,0.98,2.19,1.11,-0.34,-0.24,1.20,-0.93,1.57,1.37,0.68,-0.11,2.99,0.43,-1.62,0.45,1.31,-1.47,-0.22,0.73,0.00,1.98,-0.69
"ex947",-0.14,-0.17,2.14,1.85,2.92,0.66,2.80,1.93,2.54,1.53,2.07,2.04,3.45,2.30,3.80,2.07,2.75,2.05,1.41,-1.40,-0.30,1.22,0.28,-0.11,0.96,0.81,1.27,-0.47,2.58,0.12,0.12,-0.86,-0.90,-0.06,-1.12
"ex948",-1.37,0.84,-1.17,-1.86,2.26,1.93,1.04,-0.23,0.80,1.39,0.80,3.33,3.24,4.50,5.61,3.53,2.09,4.41,2.74,0.40,-0.69,0.61,-0.05,1.00,1.09,1.17,-0.52,0.33,-0.45,-0.17,-1.40,1.08,0.26,0.68,1.24
"ex949",-0.86,1.57,1.51,1.93,2.28,1.67,3.61,-0.56,0.55,1.40,3.76,1.85,2.20,4.82,5.48,4.35,4.33,1.45,2.91,0.55,-1.08,0.88,-1.61,-0.55,-0.07,-0.71,0.22,0.64,0.19,0.17,-0.03,0.02,0.61,0.15,0.16
"ex950",-1.98,-0.28,0.69,-0.35,0.61,1.19,0.22,0.46,1.05,4.04,5.24,5.69,3.51,6.30,3.82,1.84,1.16,2.47,-0.08,0.34,-0.63,0.81,-1.51,3.03,0.22,-0.58,-1.02,-1.69,0.00,-0.17,0.59,-0.35,-0.68,-1.47,1.23
"ex951",-1.49,0.09,1.99,-0.61,0.03,1.02,0.64,0.71,0.93,0.35,1.09,3.45,3.78,5.72,6.81,5.10,4.06,2.96,4.60,2.40,0.15,-0.78,-0.64,-0.71,-0.66,0.97,-0.22,1.83,1.79,-1.01,-1.39,-1.47,-2.20,0.11,-1.07
"ex952",-0.20,0.21,0.81,3.60,2.18,5.53,2.62,2.79,2.67,2.80,2.75,1.26,1.24,-0.87,0.13,0.99,1.24,0.84,0.87,-0.22,-0.65,-2.33,0.79,0.95,0.32,-0.59,-1.32,0.21,-0.45,-0.38,-0.11,0.09,1.23,1.13,-0.54
"ex953",-0.08,-0.88,0.41,0.36,2.00,1.20,4.22,3.88,2.17,3.98,5.38,5.50,3.49,2.57,0.76,1.95,-0.75,2.00,-1.92,-2.73,0.68,0.89,1.36,-0.14,-0.59,0.32,1.47,-1.07,-0.70,1.06,1.59,0.27,1.89,2.26,0.23
"ex954",-2.35,-0.99,3.76,1.14,2.69,1.26,3.92,3.88,3.21,2.57,1.97,3.34,1.22,0.94,3.24,1.98,0.85,1.92,1.72,0.60,1.28,-0.76,-0.90,0.91,1.58,-0.24,0.57,-0.10,0.82,-0.43,1.07,0.42,-0.97,-0.94,-0.09
"ex955",0.49,1.70,0.59,2.17,1.57,2.59,3.03,4.07,3.06,3.79,2.97,3.23,1.24,1.63,1.40,-1.97,-0.85,-0.12,1.66,-0.57,0.43,1.32,1.23,0.95,0.22,-0.03,0.65,-0.99,-1.87,0.68,-1.39,-1.56,-0.97,-0.79,1.13
"ex956",1.05,-1.11,-0.72,1.02,-0.19,-1.46,1.34,1.87,0.93,4.30,4.54,5.33,4.59,3.70,3.28,2.27,3.65,1.66,2.51,0.28,-1.02,0.16,1.67,-0.19,1.19,0.58,0.26,0.97,1.12,0.67,0.98,-0.14,0.79,-0.13,1.58
"ex957",0.73,-0.13,1.71,1.35,1.65,2.01,3.27,4.52,2.40,2.73,2.01,2.45,0.33,1.87,1.02,2.13,0.57,0.62,0.78,-0.71,2.46,0.82,-0.98,-0.07,-1.71,-0.01,-0.29,-1.83,-0.35,1.05,0.76,1.82,0.45,0.47,-1.49
"ex958",-0.85,2.14,0.42,0.30,3.29,3.44,5.25,4.62,4.86,3.65,4.47,2.61,2.02,0.94,2.26,0.66,-0.55,-1.04,-1.84,1.34,-1.08,0.93,0.86,-0.14,-1.71,-1.00,-0.80,-0.95,-0.33,0.22,0.03,-0.40,-0.25,2.27,-0.48
"ex959",-0.30,0.60,-0.54,2.06,2.04,3.69,4.22,3.84,4.77,1.04,3.48,0.50,3.14,0.18,-0.66,1.76,0.41,-0.48,1.40,1.64,-2.32,-1.18,0.41,2.27,-0.83,-0.52,-0.86,-0.60,0.16,-0.11,-0.11,0.94,1.57,-0.34,-0.67
"ex960",-0.35,-0.31,0.15,0.50,0.45,1.14,1.00,3.00,4.32,4.12,4.58,4.16,3.25,4.60,1.67,2.95,0.24,-0.94,1.04,0.03,-2.07,1.05,-0.38,-0.28,-1.01,1.46,0.62,0.32,1.00,0.86,-1.37,2.76,-0.03,-0.54,-1.25
"ex961",0.57,1.07,1.05,0.71,0.79,-0.09,0.71,1.69,1.78,0.92,1.49,2.87,3.73,3.14,3.81,3.49,2.40,2.37,0.20,0.99,-0.06,-0.61,-1.10,1.21,-0.89,0.01,-0.88,-0.61,-1.23,0.09,0.16,-0.03,0.48,-1.11,-0.37
"ex962",0.29,-1.03,0.66,-1.12,-0.88,0.79,0.96,2.78,1.45,3.12,3.89,4.86,2.92,3.29,4.03,4.17,0.38,1.21,-2.04,1.69,1.10,1.37,2.00,1.12,1.69,1.14,1.86,-0.23,-0.19,0.61,0.59,0.13,-0.82,-0.15,0.34
"ex963",-0.45,-0.23,0.72,-1.02,0.95,2.39,3.31,2.72,3.62,4.53,4.38,4.41,3.93,4.09,3.31,1.28,-0.37,-0.32,-0.76,0.69,-0.01,0.63,-1.48,1.73,0.17,-1.76,1.50,0.39,0.06,-1.24,-0.14,0.02,0.63,-1.23,-1.60
"ex964",-1.87,-0.37,0.54,-0.44,1.14,3.85,6.25,4.33,6.41,3.74,5.00,2.21,3.10,2.08,1.76,1.20,-0.50,0.58,-0.85,-0.50,0.09,-1.50,0.54,1.68,-1.59,1.04,-0.77,-0.97,0.62,-0.23,-0.22,-1.46,-0.55,-0.14,1.26
"ex965",-1.77,1.11,-0.94,0.39,0.94,0.61,2.84,3.42,4.14,6.52,5.30,2.87,5.39,2.05,2.38,1.57,0.29,0.61,0.41,-0.73,-0.25,-0.04,0.03,0.39,-0.77,0.08,-0.19,0.46,-0.72,0.27,-0.77,0.11,1.59,-1.58,0.37
"ex966",-0.29,2.31,0.99,1.24,2.13,3.22,3.82,2.53,3.54,1.42,3.57,1.77,0.08,3.12,2.43,3.27,2.04,1.68,1.95,2.65,0.13,0.10,-1.37,0.14,0.97,-1.25,-1.04,-0.36,0.62,-2.19,1.12,1.26,1.38,0.43,-0.14
"ex967",0.82,0.42,1.27,0.01,2.12,2.47,7.82,4.50,2.62,1.91,1.40,0.47,1.08,0.15,0.60,-0.38,-0.12,1.08,1.34,-0.13,0.32,-0.38,1.99,-0.14,-0.73,0.49,1.71,0.26,-0.09,-0.62,0.38,0.56,-1.82,0.70,1.30
"ex968",-2.09,1.69,-0.13,-0.14,0.90,-1.04,-1.80,1.33,-1.41,2.47,2.40,5.09,5.41,6.36,5.84,5.37,4.94,2.39,1.36,3.39,1.95,-1.25,-1.50,0.89,-0.55,0.39,0.41,0.35,0.29,-0.90,-0.32,-2.14,0.20,-1.04,-0.63
"ex969",0.13,-0.16,1.08,-1.87,0.37,1.06,3.29,1.20,-0.15,2.58,1.24,2.61,3.54,4.80,5.98,3.21,3.88,2.61,1.78,1.47,0.18,-0.26,-0.49,-0.80,0.67,0.43,-2.35,-1.61,-1.34,-0.03,-2.24,1.92,-0.03,-0.30,2.05
"ex970",0.58,2.11,1.63,1.35,4.46,5.88,4.23,5.78,3.34,5.11,1.66,2.27,1.60,1.19,-1.34,-0.05,-1.28,-0.97,-0.49,0.12,-0.61,-0.10,1.10,-0.15,1.53,0.34,0.72,-0.86,0.44,-0.21,0.46,-0.11,1.81,-1.92,0.34
"ex971",-1.06,1.19,2.51,2.68,-0.70,2.11,3.30,3.96,4.82,2.01,3.15,5.23,3.46,1.58,2.01,0.19,0.20,0.10,-1.83,0.88,-0.02,-0.56,0.18,0.30,1.07,-0.12,-1.22,-0.23,0.08,-0.80,2.62,0.01,-0.20,1.07,-0.65
"ex972",0.22,0.02,1.92,1.57,0.86,1.98,2.54,4.15,4.52,3.33,2.51,4.14,0.96,0.41,0.39,-0.28,1.67,-1.07,1.92,-0.40,-0.83,0.23,1.00,-1.11,0.42,0.57,-0.06,-0.91,-0.99,-0.12,1.08,0.37,0.96,1.16,-2.21
"ex973",-0.98,0.97,1.27,2.69,3.43,4.33,3.58,4.79,3.73,4.41,3.50,1.54,0.44,-0.65,-1.75,0.06,-1.82,0.17,-0.27,1.67,-0.34,0.46,1.27,-0.06,-0.07,-0.74,0.57,-0.99,0.31,-0.50,0.12,-1.41,-0.13,-0.66,-0.69
"ex974",1.45,0.58,0.07,-0.38,-0.35,0.12,2.29,0.39,2.35,3.52,3.80,5.28,3.67,3.36,1.20,-0.08,-0.60,1.16,-0.01,1.99,0.49,-0.99,-0.29,1.42,0.28,-0.14,0.43,-1.73,-0.82,0.33,-0.79,0.78,1.18,-1.25,1.38
"ex975",0.97,0.74,-0.79,0.86,0.18,-1.56,0.61,0.75,3.08,1.59,4.37,3.90,1.52,3.67,4.16,1.23,0.86,0.25,0.44,0.54,0.77,0.19,-0.28,-1.14,-0.89,0.69,-1.37,-0.48,-0.07,1.55,0.74,-0.17,0.18,-0.99,-0.18
"ex976",-1.30,-1.19,-1.25,1.03,-0.78,-0.67,0.92,2.55,4.58,4.32,5.66,4.25,5.68,3.59,2.78,1.87,-0.14,-0.64,0.74,-0.78,0.48,1.11,0.77,0.14,-1.55,0.37,1.65,1.38,0.36,-0.60,-1.20,-0.71,0.32,-0.48,0.78
"ex977",1.18,-0.55,-0.50,1.85,0.83,2.56,2.64,2.93,1.27,2.26,3.50,2.48,3.29,3.66,3.03,4.47,2.68,0.29,0.88,0.76,0.77,0.60,2.06,0.91,-0.92,0.66,-1.02,0.63,-0.34,1.49,0.76,0.36,-1.72,-1.67,-0.97
"ex978",-0.23,0.23,-0.28,4.54,3.54,3.98,3.32,4.28,2.44,3.42,1.54,1.11,1.86,2.10,1.75,0.24,0.79,0.38,0.15,0.44,-1.57,0.98,-1.44,1.13,-0.54,0.70,0.14,-3.06,1.30,-1.52,1.25,1.26,-0.57,0.51,1.07
"ex979",-0.21,0.43,0.51,2.09,1.47,2.83,3.52,3.53,4.30,1.93,2.21,1.19,0.48,0.79,2.20,2.11,0.86,2.73,1.20,0.20,0.75,1.96,-0.49,-1.41,-1.57,-0.72,-0.22,0.11,0.30,-0.98,0.23,0.01,-0.67,0.38,0.15
"ex980",2.40,0.05,1.40,1.99,1.76,1.76,1.91,0.89,0.03,3.17,1.32,2.32,2.60,4.27,4.03,3.98,2.21,0.93,0.44,0.44,-0.08,2.28,1.92,-0.92,-0.06,-0.66,-0.85,1.46,1.33,-0.21,0.59,0.13,0.33,-0.32,-1.55
"ex981",0.84,0.97,-0.38,-1.16,0.85,0.49,2.93,3.31,5.11,3.87,6.84,6.09,5.33,3.49,2.69,1.62,-0.85,0.40,-0.30,-1.08,-0.29,0.40,0.29,-1.35,0.70,1.83,0.76,-0.06,-0.10,1.48,2.59,1.31,0.23,-0.40,-0.48
"ex982",0.42,1.83,0.58,-0.67,1.72,0.20,1.72,1.29,-0.48,3.34,2.47,2.07,4.52,4.72,4.93,4.01,4.35,2.79,2.31,1.00,-0.73,-0.23,0.50,0.32,0.07,2.64,1.83,-1.07,1.39,1.03,-0.07,-0.58,1.22,0.90,1.11
"ex983",0.08,-0.75,-0.82,0.89,3.47,2.78,5.60,3.54,6.20,3.65,1.93,2.81,2.57,1.38,-0.45,-0.57,-0.83,2.51,-0.35,-1.76,-0.40,1.70,0.16,-1.57,-0.24,0.69,-0.08,-0.59,1.30,-0.46,-0.19,-0.84,-0.44,0.04,0.38
"ex984",0.90,0.57,0.61,0.63,0.78,3.68,3.46,6.20,4.86,3.24,5.33,3.12,3.34,-0.85,1.73,0.33,0.45,-0.00,0.11,0.42,-0.82,0.63,1.05,0.19,2.45,0.24,-0.90,-0.61,-0.21,-0.34,0.27,0.87,0.26,-0.92,-0.93
"ex985",-1.22,0.87,1.89,2.67,3.29,3.57,5.03,4.66,4.51,2.92,2.19,1.51,-0.38,0.68,1.49,1.09,0.43,-0.35,0.27,-0.07,-0.37,-0.53,-0.88,0.26,-0.87,1.10,1.20,-1.59,0.32,0.25,0.99,0.21,-0.00,1.64,-1.20
"ex986",-0.58,2.54,1.69,3.38,3.81,3.72,5.86,4.00,4.81,2.70,0.79,-0.38,1.74,1.56,-0.20,0.44,-1.73,0.30,1.55,-0.38,0.41,0.04,-0.40,2.35,1.50,0.89,-0.56,0.01,2.97,0.95,-1.71,1.24,0.01,0.52,-0.86
"ex987",1.41,-0.27,0.34,0.03,-1.45,2.36,2.16,0.54,-0.00,0.20,1.03,2.47,2.84,2.33,4.11,4.67,4.98,3.31,2.42,-1.15,1.82,0.55,0.57,-1.22,-0.65,-0.28,-0.06,0.45,1.02,0.16,0.22,-0.09,0.70,-0.91,0.07
"ex988",-0.82,1.09,0.76,-1.56,-2.99,0.35,3.10,2.06,4.29,4.77,6.62,3.67,5.34,2.16,1.54,1.38,2.31,-0.05,-0.97,0.93,-1.08,0.27,-0.83,0.81,0.78,1.39,0.56,1.79,-0.78,-0.43,-1.75,0.51,-0.26,-1.48,-0.52
"ex989",-1.28,0.34,3.14,2.91,4.66,3.87,5.73,5.03,3.92,3.00,1.50,0.37,1.08,-0.04,1.28,-0.43,-1.24,-0.83,0.64,-1.27,-0.12,-0.83,-0.12,-1.08,0.13,0.32,0.31,-1.22,-0.89,1.60,-0.54,1.06,-0.60,1.23,0.90
"ex990",1.56,1.81,1.10,1.51,1.34,2.88,3.11,4.31,3.07,2.89,4.07,4.48,1.93,0.51,0.07,0.39,-1.38,-1.01,1.71,-1.48,-0.33,0.04,-0.04,-0.69,-0.72,-1.45,0.67,-1.35,-0.03,0.20,-1.59,-1.00,-1.86,0.85,1.51
"ex991",-0.21,1.87,0.44,2.52,1.17,4.10,6.00,4.92,6.79,0.96,4.70,2.33,1.50,-0.53,3.86,1.40,0.06,-0.70,-0.70,-2.80,0.51,-1.04,0.45,0.71,0.62,-0.15,-0.00,1.05,0.16,0.72,0.60,0.58,0.23,-0.61,1.22
"ex992",1.25,0.25,1.44,1.47,2.31,5.40,4.89,5.57,3.33,3.03,1.05,-0.39,-1.93,-0.41,0.88,-0.81,-0.16,0.71,1.23,-0.04,-1.26,0.88,-1.07,-0.42,-1.19,0.53,-0.17,3.13,1.62,-0.69,0.36,-0.32,1.86,0.29,-0.11
"ex993",-1.06,1.17,1.88,1.70,4.76,2.83,5.19,2.03,1.36,1.97,0.25,2.57,2.38,0.11,3.30,1.65,-0.63,0.86,0.07,0.66,-1.72,0.38,-0.04,1.71,-2.41,0.41,1.86,-0.66,-1.60,0.54,0.47,-0.32,0.03,-0.23,0.07
"ex994",-0.19,0.58,-0.79,1.02,1.23,0.29,-0.72,1.21,1.42,0.44,0.42,4.00,2.64,6.04,5.48,3.96,3.53,3.06,2.64,2.74,-2.50,-0.06,1.31,-1.10,-0.66,1.11,-0.20,1.16,-0.45,-0.31,-0.54,1.87,-0.08,0.83,-1.88
"ex995",1.56,1.08,1.29,-0.20,0.94,1.15,0.73,0.61,0.77,2.58,3.00,3.52,3.79,1.03,3.65,1.75,3.12,0.09,1.42,0.56,-0.87,1.31,0.52,2.28,-1.70,-0.19,-0.14,1.36,0.74,0.03,1.01,1.03,1.85,0.37,-0.68
"ex996",0.53,0.39,1.23,1.02,0.60,2.19,3.50,2.81,3.92,5.12,5.91,4.17,3.23,2.30,1.25,1.51,0.05,-1.15,0.69,-0.17,0.07,-0.55,-1.08,-0.89,-0.36,0.37,1.01,-0.42,1.00,0.66,-0.35,-0.07,-0.37,0.23,-0.00
"ex997",0.58,0.19,2.84,2.32,3.04,4.13,3.63,5.34,5.05,2.66,3.89,3.22,1.97,0.59,-0.09,0.59,-1.30,0.38,0.82,0.21,-1.46,0.29,0.57,0.75,0.91,0.23,0.71,-1.57,0.63,-0.44,0.45,-0.64,1.29,1.81,-0.87
"ex998",0.25,-0.29,-2.72,-0.73,0.93,0.95,1.04,2.20,2.26,1.60,3.67,2.44,5.38,4.41,6.47,4.23,2.30,1.41,0.29,-0.27,0.80,-0.85,0.66,1.13,1.26,-0.00,-0.79,0.88,-1.69,-0.73,1.23,0.49,1.29,0.18,-0.64
"ex999",0.04,-0.19,1.25,2.67,0.22,0.86,1.45,2.13,2.16,3.77,5.79,5.98,3.05,2.05,1.53,3.34,-0.05,0.75,2.69,-0.83,0.54,-0.46,-0.28,-0.66,0.01,-1.44,-1.55,1.35,0.73,-1.20,-0.59,-0.82,-1.12,-0.34,2.04
"ex1000",0.12,1.53,1.02,1.07,-0.41,-0.14,0.67,0.34,2.48,2.36,4.61,5.72,4.89,4.31,3.22,4.00,2.94,-0.73,0.95,0.01,-0.16,0.51,-2.49,0.81,1.80,0.41,-0.59,1.32,0.60,-0.85,0.03,-1.39,0.51,-2.61,-1.09
"ex1001",-0.29,-2.11,-0.37,-1.35,0.90,0.61,0.16,2.56,3.37,3.40,5.83,4.00,1.38,5.24,1.08,1.12,2.57,1.02,0.67,0.26,-1.33,0.89,1.35,0.77,-0.41,-0.64,0.43,-1.47,-0.42,2.17,-0.57,-1.25,-0.73,-0.70,0.26
"ex1002",-0.18,-0.63,0.92,1.13,1.51,0.84,0.98,0.88,1.58,1.63,1.05,3.27,1.45,2.96,3.45,3.50,3.76,0.95,2.34,1.95,0.10,-0.87,-0.03,-1.09,-0.97,-0.02,1.26,0.85,0.72,1.11,-0.48,-1.05,0.04,-0.71,-0.66
"ex1003",-0.66,-1.40,0.63,0.26,1.18,2.01,3.41,3.03,-0.97,2.24,1.49,5.00,1.91,1.99,2.22,1.52,2.76,3.47,2.66,0.26,-1.42,-0.07,0.48,-0.05,0.04,-0.40,1.64,1.17,-0.11,0.27,0.57,0.29,-0.22,0.62,-0.55
"ex1004",-0.15,0.89,-0.84,-0.43,0.04,-0.44,2.91,0.76,1.44,2.14,3.67,2.50,1.81,4.96,4.41,2.76,3.48,1.34,1.35,1.17,-0.13,-0.26,1.25,-1.48,-0.04,1.16,1.41,0.26,-1.99,0.49,0.62,0.75,-0.78,-1.46,1.39
"ex1005",0.87,1.00,0.70,0.05,0.72,0.47,2.38,2.79,2.36,3.94,6.45,4.55,2.50,3.46,-0.07,0.74,-0.28,-0.13,1.13,1.58,-0.71,0.44,-0.87,0.35,-1.96,0.63,-0.81,0.86,0.12,0.15,1.13,1.78,-0.30,-1.10,-0.27
"ex1006",1.99,1.12,2.08,3.51,3.34,4.23,4.75,4.31,4.38,2.16,0.64,-0.52,0.32,0.88,0.47,1.89,-1.02,0.86,-0.95,-0.94,0.45,0.49,1.71,-1.37,-1.00,0.22,-1.50,0.62,-0.82,0.59,-0.27,0.36,0.23,-1.14,-0.04
"ex1007",-0.36,-0.36,0.33,0.42,0.59,1.72,1.87,1.83,2.92,0.77,4.27,3.74,5.31,4.21,3.38,2.76,1.16,2.23,-1.12,0.64,0.66,-1.10,1.15,-1.54,0.17,-0.23,0.12,0.90,-0.46,0.60,-0.89,-0.35,-0.73,-0.68,-0.69
"ex1008",-0.02,0.70,-0.75,-0.64,0.36,0.27,0.33,2.57,3.75,5.01,4.30,4.13,3.83,1.97,2.97,1.08,-0.54,0.92,-0.40,-0.82,0.73,-0.04,-0.52,-0.24,0.16,0.40,0.82,-0.54,0.67,-2.21,-2.15,0.20,-0.68,-0.73,-0.73
"ex1009",0.64,1.78,-0.21,-1.45,1.14,1.23,2.27,3.79,3.50,3.54,5.22,6.00,2.49,2.00,0.55,1.24,-0.72,-1.04,0.10,-0.59,-0.68,-0.44,-2.25,-0.07,-0.22,-0.53,0.66,0.66,0.40,0.40,-1.12,-0.36,-0.47,0.72,-1.70
"ex1010",-0.28,0.07,0.52,1.75,2.93,3.87,6.34,4.00,4.63,1.97,2.68,3.94,1.80,1.16,-0.29,0.58,-0.70,0.13,0.19,-1.20,-0.87,0.34,-0.46,-0.43,-1.48,0.68,-0.94,-0.11,0.47,1.76,-0.58,1.60,-0.02,0.79,-0.65
"ex1011",-1.09,0.34,1.59,1.42,4.77,4.11,4.86,3.82,3.97,2.35,3.21,0.58,0.91,-0.46,0.14,0.98,-0.11,-0.42,0.91,-0.06,0.65,0.92,0.23,1.08,-0.65,0.41,-1.11,0.48,-0.10,1.60,-1.52,-0.79,-1.18,0.36,0.63
"ex1012",1.26,0.79,0.28,3.12,1.37,6.73,5.07,5.35,2.99,3.59,3.25,2.15,2.55,1.64,0.76,0.41,1.47,1.01,-1.13,-0.31,-0.83,0.74,-1.48,0.39,1.53,0.15,0.73,0.90,0.03,0.52,0.51,-3.00,-0.84,-1.08,-0.47
"ex1013",-1.99,1.80,0.39,1.08,0.67,-0.81,0.07,0.72,-0.26,2.85,2.86,2.98,4.10,5.15,6.24,5.68,3.74,2.05,1.83,2.77,-0.13,0.41,-0.92,1.16,-1.09,-0.13,-0.05,-0.40,0.13,0.27,-1.20,-0.56,-1.20,-0.08,1.15
"ex1014",1.40,-0.48,1.25,0.64,-1.51,-1.35,0.47,2.55,0.77,2.81,2.92,3.16,2.61,3.96,6.43,4.04,3.51,2.03,0.19,1.22,0.54,0.53,-1.27,1.90,-0.92,-0.99,0.01,0.79,-1.29,-0.10,-0.04,-0.55,0.49,2.00,0.64
"ex1015",2.07,1.22,-0.01,-1.60,0.00,0.75,1.40,1.90,3.47,5.48,5.40,5.81,2.83,3.23,1.93,0.39,0.41,-2.96,-0.17,-0.84,0.50,0.68,0.86,-0.83,-0.63,0.53,1.00,-0.18,0.10,-0.14,-1.54,-0.25,0.46,1.06,0.03
"ex1016",1.60,0.28,0.64,2.30,1.86,4.63,4.60,2.38,2.13,2.94,2.49,1.07,1.00,2.48,3.81,2.38,2.07,2.64,-0.78,1.05,-1.03,0.78,-0.29,-1.12,-0.15,-0.29,0.14,1.84,0.05,2.00,-0.13,-2.28,0.23,0.45,-0.65
"ex1017",0.27,0.16,1.70,-0.19,1.07,1.56,2.94,0.66,3.37,7.37,6.67,4.28,3.40,2.96,1.26,0.46,-1.27,-0.70,-0.44,-0.24,0.71,-0.71,0.97,1.42,1.49,1.30,-0.09,-2.05,0.53,-0.13,-0.82,-0.78,1.45,0.84,-1.61
"ex1018",1.28,0.54,-0.16,1.66,2.24,0.62,1.71,4.47,2.54,6.06,6.86,3.84,2.38,4.63,3.10,-0.60,-0.99,0.78,-1.50,-1.16,-0.25,-0.58,-1.04,0.14,1.12,-0.79,-0.85,0.04,1.68,0.93,1.06,-0.29,0.64,0.50,1.45
"ex1019",-0.32,0.85,1.78,1.46,1.50,4.12,2.69,4.20,1.72,3.51,2.43,1.23,2.47,0.86,2.25,1.66,1.44,0.23,2.02,-0.56,0.88,1.12,0.98,1.26,-0.34,-0.34,0.35,1.63,1.01,-1.12,-0.70,0.30,0.30,-1.55,-1.01
"ex1020",-1.91,-0.74,-0.74,-0.47,-0.85,0.91,-0.70,0.99,0.06,1.12,1.19,2.42,3.69,3.58,4.29,4.58,5.72,3.70,0.83,2.33,0.27,0.72,0.76,0.35,2.81,-1.09,0.56,0.06,0.15,0.88,-0.53,-1.65,-1.98,1.47,1.88
"ex1021",0.05,0.45,-0.75,-0.57,0.33,0.34,0.97,1.19,1.14,3.35,3.33,3.53,2.95,4.43,5.44,1.16,1.89,0.53,1.57,2.26,0.54,-0.33,-0.08,-1.08,0.31,0.26,0.22,-0.98,-0.90,1.60,-1.08,-1.44,-2.44,0.09,0.22
"ex1022",0.73,0.83,0.47,1.10,2.80,0.71,1.48,2.83,5.01,2.47,5.93,5.19,4.38,3.28,3.35,2.60,2.84,0.81,-1.50,-0.71,-1.44,-0.07,0.42,-1.21,0.28,0.09,-0.74,-0.26,-0.41,-0.35,0.21,-0.24,-0.55,-1.14,0.43
"ex1023",1.31,1.01,-0.57,3.31,1.66,3.10,4.52,2.44,5.12,2.53,4.46,3.67,2.83,1.40,1.18,0.67,0.29,0.92,-0.17,1.49,1.36,0.96,-0.39,-0.83,-0.16,0.53,-0.42,-1.18,-0.73,0.32,-2.33,-1.88,0.64,0.35,-1.26
"ex1024",0.32,0.68,-2.10,-0.35,-0.04,1.29,2.71,1.86,4.77,3.93,6.47,3.82,2.97,2.73,3.43,1.36,0.05,-0.52,-1.81,-0.66,-1.02,0.48,-1.20,-0.17,0.33,-1.68,0.35,-0.75,-1.89,1.16,0.27,-1.97,-0.85,-0.78,-0.76
"ex1025",1.26,0.15,0.20,2.93,0.73,2.44,1.26,1.81,1.96,-0.80,1.74,4.27,2.70,2.83,5.47,3.08,2.38,3.29,2.25,2.38,-0.30,-1.44,1.40,0.08,-1.16,0.54,0.22,-1.11,0.41,0.20,2.32,-0.63,0.54,0.42,-0.44
"ex1026",-1.66,-0.01,1.40,1.30,1.83,2.88,4.34,3.53,2.11,3.31,0.62,2.08,1.40,1.08,2.81,0.61,1.22,-0.03,1.42,1.61,-1.26,-1.27,-0.86,-1.09,1.90,1.69,-0.19,-1.00,1.65,-1.20,-0.81,2.53,-1.32,0.55,0.38
"ex1027",-0.70,-0.80,-0.52,2.42,-0.87,0.45,1.25,3.91,2.66,4.30,6.98,3.87,4.29,3.38,2.14,0.38,1.88,-1.37,0.48,0.38,-0.24,-1.99,-0.40,1.09,-0.16,2.02,0.25,0.78,-0.96,-0.63,-1.22,-0.59,1.53,-0.90,0.33
"ex1028",-0.50,0.73,0.32,2.76,3.31,5.27,4.43,0.31,1.72,1.72,1.39,3.03,2.89,1.96,4.02,3.95,1.28,1.12,0.77,-0.52,1.91,-0.75,0.30,-0.70,-0.14,0.14,0.20,0.78,1.34,0.17,-1.39,-0.48,1.29,-1.49,0.33
"ex1029",1.67,-0.53,-1.31,-1.73,1.47,2.74,4.67,2.94,2.47,5.09,4.98,1.96,2.02,2.37,-0.30,-0.60,0.00,1.06,-2.93,0.55,-0.00,-1.34,-0.36,0.18,-0.14,0.22,-1.69,-0.66,-0.30,0.13,-0.93,0.40,-0.09,-0.25,2.07
"ex1030",-0.35,1.44,0.90,1.99,0.82,1.06,5.01,3.89,3.83,3.38,2.28,0.97,1.22,1.75,2.01,1.22,-1.76,0.59,1.46,-0.84,-0.08,0.58,0.32,0.24,0.28,0.07,-0.14,-0.02,-1.54,0.98,0.29,-0.64,2.20,-1.40,-0.23
"ex1031",-0.99,-2.42,-0.19,0.58,-0.03,-0.86,1.13,1.16,0.71,2.72,1.18,3.12,3.29,5.55,6.11,4.42,3.25,3.94,0.48,0.92,-0.57,0.10,-0.94,-1.41,-0.20,0.45,1.41,0.67,0.55,-1.22,0.35,-0.10,-0.85,0.07,1.04
"ex1032",0.66,0.49,-0.11,-1.73,1.30,-1.17,1.37,2.15,2.64,4.88,4.30,3.68,0.95,2.83,3.30,3.61,1.45,0.41,0.85,-1.14,0.97,0.81,1.03,-0.62,0.40,-0.45,0.30,1.14,0.78,3.24,0.77,0.72,-1.92,-0.72,0.38
"ex1033",-2.36,0.38,1.27,1.07,-0.24,0.39,3.01,0.64,4.11,6.27,6.54,4.87,4.22,-0.29,1.72,1.40,-0.41,0.33,-0.36,0.05,-0.37,1.14,-0.48,-0.85,0.52,0.99,-0.30,0.94,-0.80,0.77,-0.09,0.22,0.89,-0.93,-1.42
"ex1034",-0.18,-0.02,0.68,0.08,1.35,1.48,0.99,1.89,1.15,5.96,4.80,4.36,5.80,3.65,5.00,3.38,3.03,1.95,1.88,2.24,0.62,0.20,-0.88,1.38,-0.59,0.09,0.85,-1.52,0.12,2.90,-2.12,0.80,1.29,-1.28,-0.48
"ex1035",0.05,-0.54,-0.20,0.28,-1.70,-0.65,0.71,0.88,-0.34,2.23,2.77,4.15,5.33,5.39,5.09,4.09,3.12,2.56,1.47,-0.92,-1.04,-0.85,0.08,0.07,0.13,-0.00,0.39,0.85,-0.01,1.58,-1.95,-1.03,0.27,0.55,0.62
"ex1036",0.52,-0.90,1.81,1.69,0.83,2.51,2.60,4.92,4.08,3.55,6.88,2.30,2.00,2.65,2.25,0.66,-0.18,-1.07,-0.70,-0.16,-1.24,0.01,0.54,-0.95,0.15,-0.68,0.50,-1.06,0.89,-2.70,-1.31,0.50,0.13,0.49,0.17
"ex1037",-0.06,0.79,1.22,4.34,2.80,4.79,5.47,4.33,2.48,1.86,3.42,1.16,2.75,0.25,-1.30,0.64,-1.08,0.82,0.55,0.24,0.98,0.26,0.38,0.92,-1.43,-0.59,1.12,-1.23,0.21,1.29,1.75,1.10,-0.29,0.35,-2.52
"ex1038",-1.66,0.72,2.21,2.13,2.29,2.88,4.01,2.13,1.77,1.67,0.64,1.45,4.32,2.95,4.68,1.28,1.31,1.69,1.29,-1.35,-1.51,0.43,-0.08,-3.08,0.94,-0.10,1.04,0.01,1.17,0.82,2.33,0.32,1.11,1.02,0.25
"ex1039",-0.58,0.35,-0.32,-0.16,0.66,2.06,3.72,2.37,5.20,3.50,3.24,4.14,2.49,2.80,1.46,1.82,1.68,-0.06,-2.81,-0.58,-0.91,0.09,-0.12,-0.37,-1.51,-0.33,2.06,0.49,0.76,-0.66,-1.61,-0.26,-0.42,2.08,-1.42
"ex1040",-1.95,-0.65,0.77,-0.55,-1.51,1.01,0.64,2.50,2.65,4.99,6.35,3.71,3.06,2.98,3.40,2.71,1.82,0.15,-0.08,0.39,0.68,-0.83,-0.15,-1.33,0.12,-0.19,0.19,-0.80,0.75,-1.12,0.73,1.18,0.13,0.29,0.10
"ex1041",1.05,1.31,1.43,2.55,4.95,2.63,3.14,2.39,1.97,0.68,3.12,2.36,3.41,2.02,3.94,0.38,1.60,-0.04,1.09,-1.21,-0.18,-0.94,0.17,-0.48,1.15,1.49,0.28,-0.42,0.11,-0.61,-1.21,0.72,1.30,0.39,2.53
"ex1042",-1.13,-0.09,0.92,0.11,-0.45,1.14,1.77,1.99,3.05,2.73,5.15,5.53,4.42,2.74,1.48,2.00,-1.41,1.02,0.76,-0.33,-0.76,0.47,-0.33,-0.77,-0.86,-1.98,0.79,-0.23,-1.19,-1.10,-0.14,-0.55,-2.65,0.30,-0.48
"ex1043",-0.03,-0.79,-0.67,0.18,1.03,-0.13,3.24,2.58,3.88,4.86,5.30,5.92,4.05,4.42,1.69,-0.35,1.28,2.22,0.96,-0.06,-0.98,0.86,-0.47,-0.96,-0.50,-0.17,1.55,-1.16,-0.29,-0.63,1.01,0.53,0.41,0.93,0.10
"ex1044",0.45,0.85,-0.35,1.29,0.17,2.24,2.00,3.41,4.25,3.73,3.57,3.56,2.23,1.88,1.71,-0.48,-1.88,0.14,0.29,0.39,-0.46,-0.12,0.37,0.34,-1.19,-0.96,1.19,0.42,-2.13,0.40,1.17,0.21,-0.87,-0.20,0.11
"ex1045",0.64,0.55,0.64,0.18,0.77,2.96,-1.41,2.83,3.02,2.91,4.62,3.63,4.97,4.40,2.74,1.36,1.61,0.26,-1.30,-0.30,-0.81,-0.84,0.31,-1.86,-0.05,-1.60,0.17,0.57,0.59,1.85,0.58,-1.82,-0.91,-0.50,-1.20
"ex1046",0.42,1.97,1.86,2.89,2.86,4.32,5.97,3.00,5.51,3.08,0.25,-0.02,1.24,0.69,-1.48,1.06,0.03,-0.03,-0.08,-0.16,0.14,-1.73,-0.95,-0.21,-0.20,-1.03,0.37,-0.38,1.40,0.39,0.35,0.74,0.07,1.47,-0.31
"ex1047",-0.55,0.38,1.06,2.19,3.31,5.84,3.71,1.67,5.08,3.06,3.88,1.53,-1.64,1.48,0.22,-1.70,0.13,1.58,1.42,0.62,-0.07,2.10,1.05,-1.63,0.55,-1.68,-0.24,0.83,0.68,1.32,1.10,-1.64,1.49,1.51,0.28
"ex1048",0.47,-1.03,1.24,0.49,0.16,2.06,2.87,2.14,0.52,0.39,3.16,3.74,2.29,2.00,4.65,2.77,1.89,2.01,0.82,-0.49,1.85,0.06,-0.66,1.12,1.00,-1.93,-1.39,-1.67,-0.00,0.15,1.09,0.04,0.63,0.63,-0.22
"ex1049",0.95,1.59,2.19,2.94,2.63,3.37,4.34,4.10,2.68,1.09,3.93,-1.23,1.05,1.11,0.33,2.01,1.49,-0.27,-0.40,-0.48,1.04,-2.23,0.57,0.78,-0.32,-1.20,0.09,-0.22,-0.40,0.78,1.40,1.20,-1.13,1.37,-0.57
"ex1050",0.66,0.56,1.29,0.09,2.26,1.70,1.66,0.20,0.30,1.14,2.31,3.04,3.88,4.74,4.63,3.63,3.46,3.24,0.51,0.36,-2.28,1.20,-0.07,1.22,0.33,2.42,-0.47,1.14,0.08,0.49,-0.98,0.05,0.65,0.04,0.09
"ex1051",1.44,2.11,1.81,3.76,2.63,4.45,5.63,5.05,3.74,3.96,2.02,2.27,1.33,-0.47,0.02,0.38,0.70,0.37,-0.31,-0.42,-1.43,0.70,-1.14,0.13,0.83,0.80,-1.28,-0.36,1.28,0.97,1.43,1.22,0.30,-0.75,0.33
"ex1052",-0.88,0.30,-0.04,1.48,1.18,2.23,1.93,3.30,2.47,2.89,5.84,5.37,2.67,3.11,2.66,0.82,0.98,-0.52,1.21,-1.00,-0.18,-0.21,0.11,-0.42,-0.25,0.69,-0.06,1.22,0.73,0.15,-0.04,1.16,0.09,-0.26,0.92
"ex1053",1.30,1.23,1.11,2.34,1.92,1.89,6.02,4.30,3.70,4.17,4.10,3.34,1.06,2.15,0.59,0.36,0.92,0.26,-0.44,-1.22,0.30,0.43,-1.37,1.04,-1.15,0.85,-1.00,0.16,-0.73,-0.75,-0.87,-3.10,0.68,2.28,-0.65
"ex1054",0.13,2.24,0.70,0.97,2.54,3.04,2.29,4.30,0.30,2.42,2.53,1.31,1.42,2.96,2.71,1.02,2.69,2.51,-0.31,0.75,-1.15,-1.49,-0.77,-0.20,-1.73,1.37,0.08,-0.07,0.85,-0.48,1.88,-0.08,-1.60,-0.43,-0.29
"ex1055",0.59,-0.00,1.27,1.98,0.32,2.96,4.17,3.64,2.17,2.55,2.91,1.09,1.64,2.32,2.16,1.35,2.07,0.74,0.27,-0.91,0.09,0.11,0.12,0.50,-0.87,-0.10,0.22,-0.15,-0.14,-0.21,-0.92,-1.12,-0.63,0.96,0.75
"ex1056",-0.18,-0.46,0.30,1.82,1.11,-2.27,-0.72,0.31,0.48,0.02,0.91,5.35,3.95,4.05,4.53,2.92,5.06,3.62,4.13,4.35,-1.72,1.01,-1.07,-1.60,0.15,-0.43,-0.79,0.47,1.77,-1.44,1.08,-0.46,-1.68,-0.06,-0.57
"ex1057",1.01,-0.19,0.12,0.66,0.45,2.40,0.17,0.36,0.22,0.59,-0.32,2.05,3.29,3.72,5.03,5.05,2.81,2.79,2.39,-1.29,-0.33,1.45,-0.49,2.38,-0.24,-2.04,1.43,-0.57,0.83,0.08,-0.35,0.08,-1.06,-0.59,0.37
"ex1058",-0.34,-0.72,1.31,2.39,3.97,5.21,4.22,3.21,2.59,3.67,2.65,2.77,1.20,-0.28,2.80,-0.17,-0.28,0.45,1.92,-1.25,-1.83,-0.97,0.58,-0.66,2.01,0.02,1.08,0.33,-0.97,-0.47,-0.40,-2.80,1.74,0.14,-0.34
"ex1059",-1.23,0.96,1.02,-0.69,0.84,-0.73,1.85,4.31,3.75,5.95,5.04,4.28,5.58,4.97,3.37,-0.23,-0.23,0.38,1.57,-0.26,-2.49,-0.09,1.15,1.66,0.28,-1.46,-0.61,0.33,0.24,0.66,-1.16,-0.96,0.04,-1.25,-1.45
"ex1060",0.59,0.75,0.81,0.03,-2.25,0.72,1.75,0.71,2.17,2.94,4.83,2.65,2.34,2.79,5.24,3.63,1.89,2.43,2.98,1.62,0.64,-0.69,-2.26,-0.01,-0.88,1.68,-0.54,1.16,0.90,-0.66,-0.13,1.99,0.86,-0.67,-0.97
"ex1061",0.30,2.09,0.86,3.72,3.30,4.84,5.52,3.14,1.53,4.52,2.09,1.03,0.60,0.60,3.88,1.85,1.73,1.50,-0.47,2.20,0.15,-0.56,-0.45,-0.19,1.98,1.27,-1.01,0.37,-1.65,0.38,0.27,-1.29,0.00,0.65,1.21
"ex1062",0.14,0.50,0.70,1.85,0.40,0.35,0.50,1.71,2.33,0.91,1.97,2.74,2.08,3.31,4.94,2.12,1.37,0.15,2.81,0.40,-0.10,-0.07,0.26,-1.27,1.02,0.18,0.57,0.80,0.40,-0.84,1.36,2.29,-1.70,0.17,0.71
"ex1063",0.26,0.08,1.15,1.04,1.54,0.60,2.31,1.32,1.44,2.07,4.01,3.85,4.13,2.68,5.57,4.98,3.06,2.08,0.81,-0.64,-0.71,-0.31,-0.82,-0.54,1.08,1.09,-0.23,-0.03,-1.00,0.33,0.26,1.03,-1.22,0.30,-0.26
"ex1064",-0.03,0.23,-0.94,-0.25,-0.22,1.67,2.98,4.11,3.71,4.56,5.68,6.61,3.54,2.92,1.08,1.82,0.99,-1.52,2.29,0.79,-1.78,0.74,-0.09,0.28,-0.72,-1.84,0.13,1.35,0.40,1.75,-1.61,-0.15,-0.12,-0.77,0.43
"ex1065",-0.53,0.41,-0.47,0.83,2.26,1.48,1.85,2.83,3.76,4.78,5.23,4.90,2.97,2.07,1.65,0.63,-0.16,0.08,-0.01,-2.99,-0.73,1.68,-0.26,1.00,0.50,0.77,-1.83,0.51,0.22,-0.68,-0.18,0.80,-1.25,0.16,-0.59
"ex1066",0.22,0.03,2.28,1.88,3.36,6.46,6.06,3.70,3.86,3.18,3.26,1.55,0.19,0.54,2.06,0.29,-1.09,-0.38,-0.68,-0.96,0.60,2.68,1.03,-1.04,-1.03,-1.09,-0.36,-0.36,1.24,-0.88,0.39,0.70,2.57,2.23,0.51
"ex1067",0.92,1.39,0.71,0.15,1.57,0.86,0.84,3.26,3.97,6.48,4.01,4.50,4.31,4.90,2.37,1.61,0.84,-1.08,1.01,-0.36,0.20,1.01,2.16,-1.09,1.00,-0.57,-1.33,0.12,0.09,0.26,0.83,-0.00,1.18,-1.00,-0.12
"ex1068",-0.72,0.78,1.78,1.07,2.41,3.49,4.61,1.79,1.31,2.24,2.61,3.76,2.08,2.46,3.25,2.92,3.62,1.14,0.15,-1.89,-1.56,-0.55,-1.02,0.89,0.70,-0.82,0.44,-0.92,-0.23,0.76,0.92,0.76,0.56,-1.25,0.99
"ex1069",-1.73,-1.66,-0.20,-1.25,-2.40,1.71,1.32,1.07,0.62,-1.15,2.32,1.58,3.57,5.77,6.59,5.34,4.93,2.92,1.77,-0.31,-1.84,1.05,-1.08,-0.25,0.00,-0.75,0.18,-0.13,0.28,0.56,0.50,-1.00,-0.42,-1.09,1.68
"ex1070",-2.16,2.61,-1.25,-0.44,0.04,-0.41,1.11,1.77,2.74,4.01,4.57,3.40,5.82,0.83,1.13,-1.41,0.27,0.37,0.52,1.54,0.65,-0.07,0.81,-1.70,-0.03,-0.14,1.23,0.60,-1.29,-0.77,1.19,-1.25,0.22,0.35,-1.07
"ex1071",-0.09,0.77,1.72,2.07,3.91,4.83,6.00,4.89,4.68,2.24,4.22,1.56,1.67,-0.46,0.66,1.42,-0.25,-0.71,-1.10,1.04,1.74,-1.04,2.72,-0.30,0.13,-2.20,-0.64,-0.51,0.56,1.29,-0.70,1.34,0.68,0.63,0.85
"ex1072",0.18,2.56,0.36,-0.50,-0.33,0.81,1.54,2.14,2.77,3.63,6.07,4.91,2.41,3.54,4.81,3.37,1.89,2.47,0.52,0.57,0.03,-0.25,-1.43,2.49,1.27,-0.46,-0.96,-1.68,0.21,-2.67,-0.70,0.04,-0.21,1.02,0.19
"ex1073",-1.27,2.34,1.13,-0.34,-0.60,-0.19,1.16,3.71,1.94,4.48,5.86,3.41,4.82,4.24,3.52,2.49,1.11,0.86,0.78,-0.30,-0.87,0.33,0.04,0.62,-0.13,-2.05,0.34,1.23,1.30,-1.02,0.25,-0.72,0.43,-1.37,1.22
"ex1074",-0.01,-1.08,0.19,-0.37,-0.17,2.29,1.60,2.02,5.35,4.92,6.27,5.16,2.76,2.48,0.09,-0.35,-0.20,0.28,-1.12,-0.37,-2.04,-0.38,-1.31,1.33,0.13,1.66,-0.63,-0.71,-1.38,1.76,-0.63,-0.51,0.50,0.17,1.35
"ex1075",-0.41,1.26,2.46,2.76,2.00,4.47,5.49,5.30,4.49,2.87,2.71,0.65,-0.26,0.26,-1.73,1.33,0.33,-0.11,0.29,0.90,1.37,-0.52,-0.32,-0.30,-1.40,1.54,0.53,-0.74,-0.59,-0.00,0.87,-0.41,0.66,0.19,1.01
"ex1076",-0.86,-1.75,1.09,3.47,1.93,4.46,3.23,0.73,2.12,1.32,3.33,2.71,1.14,3.24,4.61,3.55,1.29,1.41,0.72,0.58,0.53,-0.24,0.19,0.01,1.24,-0.12,-0.20,1.03,-0.55,0.42,-1.05,0.44,-0.06,0.25,0.27
"ex1077",0.93,-0.16,-0.11,0.28,0.62,-1.62,0.23,1.36,4.57,3.71,3.64,4.87,4.48,3.79,2.99,0.47,0.65,2.61,2.23,-0.02,0.09,0.38,0.94,1.45,0.43,-0.98,1.40,1.85,1.04,-0.27,0.49,0.04,0.42,-0.70,1.33
"ex1078",0.75,2.62,1.31,0.99,2.54,4.96,5.72,4.69,3.85,3.02,1.91,1.23,1.90,0.83,0.55,1.03,-0.03,-0.26,-0.21,1.99,0.41,0.85,0.75,-0.44,-1.16,-0.41,-0.63,-0.78,-0.66,0.80,0.85,-1.34,-0.60,-1.67,0.43
"ex1079",-0.42,1.70,1.22,2.87,4.27,3.27,6.84,2.70,3.03,3.35,1.93,2.14,0.20,1.55,-0.34,-1.06,-1.29,-0.61,1.25,-1.42,0.17,-2.03,0.23,1.98,0.28,-0.96,-1.79,0.69,-0.22,-1.41,0.55,0.06,1.88,-1.13,0.91
"ex1080",1.28,-0.03,2.55,0.40,1.48,4.88,3.50,3.74,4.48,4.74,1.71,2.02,-0.15,2.18,1.55,2.08,0.70,0.07,1.88,-1.91,0.07,-0.43,-0.42,-0.98,-1.45,1.24,0.36,1.21,-0.71,-0.02,0.58,0.53,1.33,0.63,0.05
"ex1081",0.40,0.90,2.42,3.48,4.20,3.93,3.52,1.05,1.82,1.46,0.72,1.24,1.71,2.04,1.54,1.40,3.35,0.61,2.22,-0.26,-0.02,2.48,0.57,0.13,-0.28,1.16,2.11,0.26,-0.18,1.96,1.05,1.79,2.06,0.43,0.46
"ex1082",0.49,0.16,2.07,2.18,2.91,3.57,6.35,5.22,4.24,3.02,1.77,2.38,0.86,0.34,0.40,0.48,-1.81,1.28,1.82,-0.53,-0.37,0.55,-0.89,-0.34,-1.39,0.04,0.07,1.64,0.28,0.83,1.02,0.44,-0.27,0.14,1.30
"ex1083",-0.14,1.28,0.34,1.98,1.70,3.10,1.92,3.71,2.90,5.44,5.32,5.43,2.78,1.56,2.61,0.83,0.74,-0.82,-0.05,-0.04,0.35,0.68,-0.09,-0.10,-0.20,-1.82,0.64,-0.57,1.22,-1.73,0.02,0.40,0.34,-1.60,0.91
"ex1084",0.17,-0.34,-0.44,-0.27,1.20,2.30,1.67,4.53,3.88,4.70,6.92,6.14,1.44,1.67,1.06,-1.27,-0.14,-0.70,-0.73,1.29,-0.05,1.50,-0.28,-0.62,1.11,-1.06,1.18,-0.16,0.58,1.66,-0.07,0.14,0.89,1.06,0.62
"ex1085",-1.16,1.84,1.37,1.26,0.49,3.11,4.69,3.74,4.64,3.95,5.04,2.97,2.92,0.65,-0.12,1.65,-0.16,2.01,0.19,1.52,-1.49,-0.09,-0.93,0.37,1.54,0.24,-0.80,0.49,-0.83,-0.99,-0.46,-2.41,-0.31,0.33,0.53
"ex1086",-0.95,0.68,-0.32,-3.10,1.43,-0.24,0.67,3.55,2.57,3.14,4.29,3.24,4.15,3.52,3.15,2.69,0.98,0.29,-0.71,1.02,-0.26,0.47,-1.85,0.11,-0.25,0.23,0.08,0.49,0.67,0.88,-1.35,0.56,-0.84,0.85,1.90
"ex1087",0.66,1.27,-0.47,0.52,1.04,0.70,0.96,3.50,2.53,5.92,5.13,4.79,2.23,2.75,0.74,2.00,1.99,-0.14,1.39,1.39,-0.16,0.40,-1.01,0.25,1.16,-1.38,-1.18,-0.84,-1.47,0.03,-1.25,-0.25,-1.75,-0.71,0.75
"ex1088",-0.89,0.15,3.01,1.18,0.96,2.23,3.76,3.71,3.93,3.90,5.54,3.92,2.71,0.61,0.46,-0.39,1.05,0.72,0.40,-0.85,0.37,0.44,-1.27,0.20,0.82,1.53,-1.70,0.63,0.31,-0.79,-0.60,0.36,-0.27,0.74,0.04
"ex1089",1.09,-1.82,-0.26,-0.48,2.32,1.00,1.94,1.56,0.93,2.27,2.68,3.18,1.24,0.67,4.31,3.15,2.11,1.84,1.88,-0.33,1.17,0.20,0.10,0.54,0.62,2.00,1.03,-1.41,-0.40,1.52,0.46,0.13,0.53,0.31,-0.41
"ex1090",-0.67,0.27,1.49,-0.47,1.01,2.10,0.47,0.56,2.07,4.53,5.07,4.04,5.03,3.95,3.78,4.14,2.46,0.88,-0.28,1.88,0.44,-1.75,-0.37,1.07,-1.04,1.29,0.26,0.42,1.04,-0.36,0.17,-0.33,1.55,0.54,-1.57
"ex1091",-0.22,-0.92,0.49,1.23,1.51,1.91,4.50,4.25,5.45,3.60,6.37,5.50,1.94,1.97,1.59,-0.18,1.68,-1.31,-0.09,-0.89,1.14,0.27,-0.95,0.35,-0.13,-1.40,-0.41,0.98,1.42,-0.45,0.69,1.27,0.20,0.78,-0.11
"ex1092",0.93,-0.23,-0.97,0.54,-0.27,1.76,0.72,2.84,2.72,2.85,5.57,2.65,3.73,3.44,1.02,3.11,0.91,0.86,0.14,1.29,0.53,0.60,-0.85,-0.46,-0.09,-0.78,1.14,2.67,-0.17,-0.92,-0.42,0.97,1.56,0.03,2.01
"ex1093",0.23,0.79,0.53,1.51,0.36,0.65,-0.28,2.61,5.85,3.65,6.20,5.25,4.78,3.79,4.21,1.53,0.65,0.74,-1.61,0.92,-1.15,0.21,-0.04,0.54,-0.57,1.28,1.83,0.26,0.28,2.64,0.96,1.81,1.24,-0.35,0.80
"ex1094",-1.64,-0.68,0.83,1.56,1.33,2.79,3.90,3.84,3.79,1.42,2.19,1.01,1.40,0.87,2.49,0.36,1.44,1.50,-0.93,-0.76,0.37,0.97,0.12,0.74,-0.04,-2.51,1.28,-1.50,0.53,0.53,0.42,-0.68,1.66,-0.23,-0.85
"ex1095",0.58,-2.97,0.27,1.01,1.01,-1.55,-0.09,-0.15,2.35,2.96,3.88,2.32,2.61,4.17,2.87,1.74,0.63,1.67,0.36,-0.89,-0.14,-0.80,-0.35,-0.61,0.51,-2.24,-0.25,0.02,2.79,-1.66,-1.71,0.67,0.65,-2.31,-0.03
"ex1096",0.38,2.35,0.95,-0.77,0.33,1.39,1.62,3.94,5.51,4.22,4.83,5.03,4.73,3.62,2.87,2.28,2.04,0.08,-0.29,0.88,1.44,-2.42,0.62,-0.84,0.22,-1.03,1.71,-0.26,-0.75,-0.11,-0.81,-0.05,1.00,-0.44,-1.43
"ex1097",-1.13,-0.50,-0.61,1.79,-0.33,0.84,0.87,4.21,4.17,4.11,5.24,7.82,5.61,2.11,2.04,0.49,0.06,-1.46,-1.29,-0.09,0.27,-0.18,-1.86,-1.36,-0.85,-0.11,-0.02,-1.59,-0.40,0.71,-1.63,-1.37,2.20,0.75,-1.39
"ex1098",0.78,1.12,1.03,0.94,1.94,1.24,2.32,3.29,0.83,0.53,1.45,3.17,3.15,2.70,0.49,3.07,1.52,-0.53,1.59,1.23,-0.27,0.92,-0.41,-0.79,0.40,0.46,-0.16,-1.54,0.45,0.89,-1.28,-0.18,0.44,-0.60,-0.62
"ex1099",-1.91,-0.03,0.68,1.42,3.64,1.62,5.50,3.55,3.42,3.64,4.32,3.64,1.31,2.02,1.92,0.60,0.95,-0.14,-0.62,-0.37,-0.70,0.77,1.41,0.48,-0.63,-1.39,-1.05,-0.01,-0.14,1.69,1.33,-1.91,-1.22,-0.10,-0.43
"ex1100",1.44,0.59,0.97,-0.03,-0.20,-0.33,1.38,2.46,1.18,0.44,3.04,2.07,4.50,4.00,5.16,5.77,2.37,1.50,0.77,1.62,-0.92,-1.10,-1.23,-0.32,1.76,-1.18,0.59,-1.39,0.47,-0.30,0.81,-0.27,0.19,0.51,0.27
"ex1101",-0.30,1.51,1.52,-0.30,1.44,1.45,4.94,3.65,3.64,2.68,5.04,4.79,1.68,2.65,0.68,0.99,0.67,-0.03,-0.51,-1.93,0.54,0.82,0.12,0.69,-0.94,1.72,-0.86,-0.84,-0.00,-0.34,1.58,-0.77,-1.23,-2.32,-1.21
"ex1102",0.69,0.31,1.12,1.70,3.11,4.51,5.98,4.79,3.06,2.91,1.22,1.64,-0.57,1.16,1.08,1.31,-0.41,0.76,1.31,-0.79,0.20,-0.04,0.86,0.23,-2.09,1.32,-1.51,0.77,0.64,-0.31,1.61,-0.10,0.32,1.16,2.19
"ex1103",0.82,1.54,2.55,0.57,2.25,3.74,3.85,4.05,5.75,5.66,3.65,2.07,1.57,2.87,0.59,-0.82,0.72,0.24,-0.46,0.63,1.70,-0.38,-0.30,0.04,1.30,0.56,-0.62,-1.68,-2.81,-1.75,0.33,-0.59,-0.36,1.21,-0.54
"ex1104",-2.48,0.25,1.79,2.45,2.42,3.39,6.65,4.10,4.25,4.62,4.58,4.56,3.08,-0.36,1.71,0.03,-1.23,-0.47,0.77,0.70,1.45,-0.13,-1.40,-0.04,-0.05,0.60,-0.12,-0.96,-1.57,-2.61,-0.47,1.10,0.57,-0.53,-0.79
"ex1105",-0.36,-1.73,-1.40,-0.59,-0.34,0.14,1.99,0.26,0.65,3.81,3.18,4.36,4.16,6.12,4.93,2.80,2.48,1.35,2.94,-0.13,-0.21,-1.44,0.64,-1.34,-3.48,1.54,0.47,0.75,0.28,0.45,-0.10,-1.04,-0.03,-0.16,0.27
"ex1106",-0.34,0.83,-0.80,2.75,1.46,2.07,2.58,3.28,2.14,2.86,2.18,-0.61,1.14,2.94,0.98,5.63,1.66,0.29,-0.05,1.22,-0.09,-1.97,-0.34,0.74,-2.38,1.33,-0.04,-0.46,-0.11,0.89,0.29,-0.34,-0.17,-2.17,1.39
"ex1107",0.17,1.70,1.62,0.22,2.15,3.03,4.47,3.83,5.38,3.30,1.28,1.02,0.18,1.19,0.61,0.72,0.13,-1.49,-1.35,1.37,1.11,0.48,0.33,1.17,-0.12,0.12,-0.54,-0.31,-2.31,-1.99,0.94,0.02,-0.66,-0.60,0.06
"ex1108",-0.41,-2.01,-1.45,0.54,0.79,0.08,1.42,1.75,2.39,3.18,3.73,3.67,3.06,5.37,1.99,1.51,2.56,0.52,0.83,0.38,-0.77,-2.45,0.63,0.34,-1.09,0.81,-0.65,0.66,-0.79,-1.30,-0.32,0.36,1.49,-1.76,-0.29
"ex1109",-1.02,0.27,0.90,0.27,0.81,2.23,4.17,3.74,5.38,4.11,5.38,3.48,5.03,1.63,2.04,2.22,-0.47,0.89,-1.90,0.29,-0.50,-0.29,0.41,1.54,0.17,-1.04,-0.23,-0.06,0.88,-0.66,1.24,-1.21,-0.17,0.37,-1.12
"ex1110",-1.16,-1.68,1.53,2.91,2.33,4.80,5.35,5.77,4.02,3.14,2.20,-0.10,-0.79,0.55,-0.31,-1.22,0.60,0.81,1.43,0.69,1.24,-0.36,0.79,-1.33,-0.98,-1.23,-0.73,0.69,2.06,-0.68,1.07,0.33,0.88,0.54,-0.07
"ex1111",2.41,0.29,-0.48,1.05,1.72,-0.02,1.95,2.37,2.60,2.48,3.13,4.31,3.50,2.29,3.45,2.83,2.86,-0.11,-0.78,0.48,1.03,-0.70,1.21,-0.38,1.02,-0.15,0.28,0.46,-0.26,-0.42,-0.08,-0.86,0.43,0.89,-2.22
"ex1112",-0.07,-1.89,0.62,2.98,2.65,2.94,2.56,3.59,5.57,4.22,2.38,1.95,0.25,2.04,2.34,-0.33,0.49,1.59,1.75,1.13,0.55,0.23,0.02,-0.28,-2.35,-0.37,-1.24,1.08,0.28,-1.05,1.24,1.56,2.16,-1.64,-0.13
"ex1113",1.72,-0.56,-1.53,-0.87,-0.76,1.86,-1.13,0.28,1.18,2.89,1.23,3.93,4.62,4.82,5.30,4.11,1.27,1.25,1.39,2.24,0.15,0.14,0.54,0.29,1.06,0.15,0.45,1.94,0.94,-0.25,1.19,0.94,-0.37,-0.17,-1.23
"ex1114",0.26,0.80,0.28,-0.81,0.83,1.48,1.35,2.94,4.29,4.24,6.27,3.75,4.98,3.62,1.89,1.07,0.08,0.17,-0.05,-0.16,-0.48,-1.14,-0.96,-0.35,-1.23,-0.98,0.51,-1.17,-1.52,0.07,0.76,-0.82,0.16,-0.90,1.27
"ex1115",0.87,1.00,2.98,1.10,0.98,2.13,4.47,2.39,2.34,5.16,5.01,2.46,4.49,1.39,-0.30,-0.73,0.75,-0.56,0.34,-0.54,-0.33,-0.75,0.58,2.27,-1.23,-0.06,-0.18,-1.29,0.48,-1.11,1.10,-0.55,0.11,1.40,0.26
"ex1116",-1.76,0.83,0.17,0.56,1.11,-1.57,1.16,0.43,1.58,2.10,2.11,2.93,4.98,2.66,3.96,3.24,2.87,4.12,-0.40,0.65,0.35,0.51,-0.92,0.85,-0.60,0.46,0.86,0.10,-0.57,-0.35,-1.09,-0.10,0.61,0.45,0.19
"ex1117",-1.59,0.04,0.04,0.28,-0.01,-0.60,1.36,0.17,0.24,2.62,4.94,2.26,4.89,3.73,2.59,4.43,1.37,2.61,0.90,1.62,1.50,-1.08,0.29,1.29,1.53,-0.36,0.31,1.35,2.00,-1.13,-0.22,-0.07,0.72,0.95,0.82
"ex1118",-0.01,0.20,0.71,0.37,2.82,0.83,0.44,1.79,0.67,-0.15,4.66,3.01,5.25,2.76,5.90,3.46,1.87,2.42,3.11,-0.92,0.74,0.48,1.87,1.07,0.18,1.52,-1.27,-0.20,-1.63,-0.76,0.90,0.05,0.25,1.31,-0.54
"ex1119",1.02,2.21,-0.48,0.51,-0.14,1.18,0.57,1.72,1.00,2.71,2.46,5.73,5.40,2.15,5.83,2.22,-1.23,0.77,2.75,1.09,-0.01,0.11,-1.74,-0.51,-0.35,1.66,0.90,0.73,2.38,-0.56,0.44,-0.80,1.58,-0.74,1.95
"ex1120",0.73,-0.72,2.43,1.64,3.57,1.90,3.45,2.78,1.03,3.01,1.31,1.62,1.37,1.05,3.47,2.46,1.18,1.90,2.35,-0.36,0.99,0.08,1.13,-0.31,-0.85,-0.72,3.10,0.74,1.17,0.44,0.61,-0.36,-1.20,-0.07,0.80
"ex1121",0.95,1.17,0.80,2.36,4.37,2.79,4.08,4.71,2.01,3.02,1.99,0.34,1.21,0.06,2.51,-0.04,0.81,-0.47,1.00,0.84,0.80,-0.23,-0.06,-1.61,2.07,1.66,-0.71,1.25,-0.92,-0.96,0.86,0.52,-0.66,-1.43,-0.54
"ex1122",0.20,-0.06,2.54,3.17,1.00,4.27,4.04,4.63,3.93,0.74,0.21,-1.09,0.60,-0.25,1.91,1.16,1.73,1.53,-0.24,1.00,1.21,-1.27,2.07,-0.46,-0.35,0.03,0.06,0.35,1.17,0.30,0.71,-0.08,1.33,0.10,0.25
"ex1123",-1.85,-0.13,1.37,-0.08,-0.09,0.61,0.35,0.97,0.36,2.42,-0.00,3.14,3.33,4.54,5.12,5.72,3.77,3.93,0.40,0.64,1.17,0.93,-1.24,-0.57,0.93,-0.30,0.47,0.75,-1.93,-0.29,1.18,1.00,-2.55,0.23,0.39
"ex1124",-0.04,1.50,-0.10,1.90,2.68,2.93,3.15,1.12,0.24,-1.56,2.30,3.40,3.44,4.45,4.90,3.51,3.49,1.57,1.25,0.94,0.65,-1.71,-1.66,-1.29,-1.05,0.59,-0.89,0.04,0.34,0.57,0.31,-0.65,-0.90,-0.74,1.58
"ex1125",0.66,0.05,-0.51,2.25,3.02,5.50,4.40,4.23,3.66,2.57,1.78,-0.44,0.91,-0.37,0.62,0.83,0.13,0.39,0.31,-0.22,-1.44,-0.38,0.56,0.81,-0.68,1.80,-0.38,0.01,1.53,1.84,0.62,0.34,0.03,0.35,0.13
"ex1126",0.59,0.64,0.52,0.37,0.63,-0.53,-0.84,0.45,0.76,2.21,2.16,2.47,4.87,3.59,3.73,2.58,1.24,3.72,0.58,1.60,1.24,-0.92,-0.41,1.88,-0.27,-0.83,1.14,0.54,-1.44,0.58,0.65,-0.23,0.21,2.06,0.23
"ex1127",-0.29,-0.98,-2.33,2.98,-1.66,-1.17,-1.20,2.98,1.30,2.65,3.06,2.28,4.28,3.60,4.20,3.68,3.69,1.90,2.80,2.03,0.74,-0.21,0.05,-0.28,0.84,0.00,0.75,-0.91,-1.30,0.64,0.99,0.09,1.89,-1.41,-2.78
"ex1128",-1.25,-0.52,-0.38,1.88,0.19,0.98,1.96,1.39,5.85,5.68,4.19,5.62,2.60,3.98,1.76,1.95,0.54,-0.23,-0.65,-0.43,-0.33,1.16,0.06,-0.23,0.20,-1.59,0.53,0.53,-0.34,1.09,-1.16,-0.64,-1.46,1.58,0.66
"ex1129",-0.32,-1.36,1.05,-1.66,-0.03,0.85,1.43,1.29,2.83,4.66,5.35,7.00,3.92,1.52,1.34,1.29,-0.58,0.25,1.74,-0.76,-0.40,0.45,-1.31,-0.51,-1.32,-0.70,0.35,-0.59,-0.37,0.51,-0.82,1.06,-0.44,-0.89,-0.35
"ex1130",1.22,0.35,2.68,3.00,2.40,2.98,3.35,2.26,1.54,1.93,3.14,3.90,2.11,2.01,2.23,1.89,1.79,1.61,0.62,-0.23,0.28,-0.19,0.09,-0.04,0.45,0.06,1.37,0.12,0.73,-0.69,-0.73,-0.93,0.87,-0.42,1.31
"ex1131",-2.10,1.54,-0.33,2.60,4.47,2.47,4.49,3.19,2.40,1.56,2.58,2.60,1.65,1.42,0.60,1.56,1.65,-0.10,-0.56,0.74,-2.21,-0.29,-0.79,0.11,0.50,-0.63,0.50,-2.10,-1.30,-0.31,-0.73,-1.20,-0.96,2.12,-0.70
"ex1132",0.37,1.07,1.69,0.82,4.37,0.88,3.83,2.44,3.44,1.78,1.21,1.22,0.16,2.74,2.10,2.77,2.69,2.59,-0.94,-0.98,-0.41,-0.24,-0.12,-0.75,-1.76,-0.34,0.62,-0.75,0.02,-0.87,1.15,1.46,-2.27,0.97,0.67
"ex1133",-0.32,-0.28,-0.17,-0.15,1.31,2.36,2.92,5.15,3.01,5.32,3.80,3.78,3.14,2.57,1.20,1.06,0.12,1.22,-1.80,0.46,0.62,0.85,0.65,-0.66,1.84,1.02,0.28,0.64,-1.15,-0.70,0.22,-0.18,0.20,0.34,-0.36
"ex1134",-1.09,0.93,-0.74,0.73,1.45,2.65,2.27,1.70,0.31,0.85,0.26,2.48,3.15,3.69,5.66,2.13,3.72,2.77,1.15,0.04,-0.12,-1.45,-0.29,-2.18,-0.55,-0.75,-0.68,-1.78,0.45,0.36,-1.60,-1.51,1.06,1.53,-2.53
"ex1135",-1.09,1.24,2.56,0.95,0.43,1.99,1.87,5.41,3.71,3.60,5.00,4.96,2.48,2.68,2.69,2.21,1.39,1.40,-0.15,-0.50,-1.69,0.05,-0.03,-1.11,2.50,1.01,1.13,-0.57,0.06,-1.69,-1.36,1.15,-1.92,0.88,-0.19
"ex1136",-0.83,0.97,1.83,2.42,0.82,2.70,2.44,2.83,1.93,1.18,2.47,1.75,2.61,2.58,1.95,2.80,2.89,2.18,-0.06,0.27,1.11,0.59,-0.44,1.54,-0.93,-2.27,-0.53,1.72,-1.47,0.02,1.12,-0.54,-0.45,-0.40,-0.42
"ex1137",0.00,-0.46,-1.28,1.39,-0.53,0.32,0.59,0.90,-0.28,1.80,2.37,3.78,2.48,5.29,6.60,4.34,3.42,0.36,2.81,0.33,1.98,1.19,-1.24,0.73,-0.23,-1.54,0.34,-0.34,0.09,-0.80,0.18,1.16,-0.71,-1.37,-2.12
"ex1138",0.31,0.18,0.81,-0.38,1.66,3.26,1.27,3.31,1.36,0.52,2.56,3.17,1.63,1.35,4.44,2.82,2.97,1.62,1.16,1.71,-0.19,-1.47,-1.54,-0.91,-0.14,-0.62,-0.46,-1.89,-1.25,-1.48,-0.34,1.03,-1.28,-0.44,-0.81
"ex1139",-1.70,0.39,2.81,3.56,3.66,3.99,7.11,5.42,2.53,3.61,0.49,1.27,0.83,-0.13,0.37,0.71,0.14,-0.75,-1.19,-1.12,1.26,-0.45,1.79,-1.90,-0.53,0.34,0.25,1.61,-0.11,-0.81,0.76,0.18,-1.52,-0.56,-0.12
"ex1140",2.18,-1.14,1.83,-0.10,1.10,2.29,1.96,2.30,1.04,3.34,2.93,1.55,3.76,2.18,7.58,3.15,2.50,1.15,2.33,1.89,0.67,0.34,2.82,-0.26,0.61,0.14,-0.62,0.61,0.42,-0.44,-0.16,1.10,-0.17,-1.15,0.69
"ex1141",0.26,-0.41,-0.55,-0.92,1.29,-0.54,-1.41,-2.56,0.30,1.97,2.46,2.13,4.16,4.44,5.25,3.66,4.72,1.96,1.03,0.80,-0.24,0.77,3.14,-0.15,-1.55,-0.28,1.33,0.28,-0.06,1.47,-0.81,-0.86,-0.33,1.20,0.41
"ex1142",0.22,0.14,0.68,1.49,2.13,1.37,3.24,1.85,-0.07,1.46,2.50,3.68,1.92,1.36,2.15,1.19,0.58,-0.27,2.03,-0.57,-1.13,-1.35,-1.41,-1.44,-0.21,0.95,-0.18,-0.41,1.90,-0.23,0.46,0.71,-2.47,-0.58,0.45
"ex1143",-1.11,-0.66,-0.16,1.08,-0.52,2.50,2.49,2.59,3.67,2.26,5.27,4.90,3.19,3.39,1.24,0.20,-1.40,-1.11,-0.16,0.20,-0.87,-1.98,0.30,0.14,-0.56,-0.71,3.06,1.57,0.20,-1.60,-2.07,-0.15,1.24,-0.36,-1.50
"ex1144",-0.58,1.45,-1.22,0.20,1.74,2.71,3.10,4.69,3.49,4.55,6.35,4.82,4.12,0.98,1.07,1.15,0.37,0.54,-0.76,-1.67,-0.29,0.43,0.36,1.45,0.06,0.83,-0.37,-0.41,-0.03,1.27,-0.64,0.27,0.99,-1.61,-1.42
"ex1145",0.29,-0.38,-0.12,2.48,0.10,1.12,1.65,1.92,2.24,2.74,2.22,1.38,3.24,5.58,4.07,2.38,3.95,1.53,2.53,1.01,1.51,-1.44,0.15,-0.42,0.38,0.11,-0.03,1.25,-0.22,-0.15,1.19,1.02,-1.11,0.22,-0.11
"ex1146",-0.33,0.67,0.77,0.18,0.40,1.39,-1.61,-0.94,0.16,0.60,2.34,3.85,2.26,5.03,6.28,3.70,4.61,1.46,1.76,-0.37,0.71,0.03,-0.54,-0.67,0.21,-0.50,0.53,0.71,0.73,-0.66,0.96,0.02,-1.12,0.76,-0.26
"ex1147",1.24,1.90,-0.44,-2.00,2.74,2.81,3.95,3.40,2.03,1.82,2.94,3.41,1.39,2.82,2.74,1.53,1.05,3.22,0.94,-1.16,-1.03,0.14,0.74,0.04,0.65,-0.02,-1.72,-0.94,-0.98,-0.04,1.14,-0.94,-0.77,-0.85,1.07
"ex1148",-0.06,0.20,0.31,1.79,0.41,4.36,2.83,3.63,0.43,2.93,3.22,3.28,2.27,3.23,4.40,1.29,1.99,3.11,0.38,0.26,0.75,-1.47,0.81,-0.48,-0.02,0.63,-1.19,0.18,-0.41,-0.96,-0.36,1.83,-1.01,-0.75,-0.74
"ex1149",0.19,1.66,2.07,0.61,0.17,0.29,-1.19,1.89,2.76,3.92,5.08,6.27,2.66,3.20,5.28,1.77,2.13,2.72,0.39,-0.88,-1.36,-1.46,-0.58,2.37,2.63,-0.08,-0.64,0.27,-0.19,0.01,-0.44,0.72,0.79,1.80,-0.22
"ex1150",-0.23,1.80,1.46,2.81,4.12,5.14,4.14,4.38,4.12,3.34,0.05,1.27,-0.23,0.59,0.84,0.65,-0.76,0.21,-0.22,0.71,-1.22,-0.12,1.33,0.63,-0.21,-0.45,-1.19,-1.68,0.23,1.47,-1.97,-0.62,-1.13,-2.10,-0.74
"ex1151",1.30,1.76,0.42,-0.36,-1.03,0.09,-0.05,1.85,0.34,1.17,3.05,3.40,1.16,4.62,6.79,5.40,4.06,1.64,1.36,2.17,0.22,0.21,-1.39,-0.92,0.07,-0.15,0.11,0.05,-1.41,-1.20,0.65,1.54,1.02,-0.93,-0.66
"ex1152",-1.64,-0.78,0.96,1.41,2.22,5.26,3.77,0.92,2.89,2.01,2.84,2.06,1.35,2.89,2.93,0.58,2.20,1.79,1.06,-0.00,-0.01,0.88,-0.47,0.96,0.39,0.26,1.68,-1.01,0.29,0.91,-1.31,1.02,-1.39,1.71,2.03
"ex1153",0.29,0.21,-0.34,-1.63,-0.30,1.16,0.47,1.62,2.57,2.99,3.32,4.85,3.24,3.37,2.65,2.53,0.12,0.16,1.53,-0.44,1.85,0.80,2.67,-0.24,-2.00,-0.47,1.86,-1.25,-0.95,0.26,0.31,-0.38,0.45,-2.29,-0.30
"ex1154",-0.75,-0.62,-1.39,-0.04,-0.62,1.12,1.52,2.69,2.93,4.02,4.14,5.86,5.13,5.10,4.31,1.05,-1.69,-0.32,-1.11,2.34,0.15,0.60,-0.08,-1.98,-0.03,0.57,-0.01,1.42,-1.16,-0.09,0.82,0.46,0.65,-0.18,1.08
"ex1155",0.99,-0.71,0.02,3.20,3.88,4.72,4.80,5.15,3.64,1.15,1.37,2.16,0.89,1.67,1.43,1.62,0.55,0.63,1.07,0.13,1.29,-0.03,0.14,-0.59,0.28,-0.39,-0.98,0.90,0.78,-0.54,-0.32,-0.32,0.43,1.31,0.08
"ex1156",0.20,1.17,3.97,2.49,3.85,4.26,6.77,5.80,6.39,3.53,1.95,2.46,1.03,-0.05,0.14,0.25,1.60,-0.57,-1.71,-0.25,0.61,0.18,-0.15,-0.85,-1.21,1.01,-1.23,0.87,-0.54,-0.70,-0.91,0.33,-0.23,0.75,1.51
"ex1157",1.69,0.16,-0.84,0.19,0.38,0.08,-0.90,1.44,0.39,0.50,3.26,2.47,5.03,4.29,3.29,3.40,4.86,2.43,2.14,0.34,-0.58,1.83,1.19,-1.60,0.64,-0.08,-0.89,0.58,1.34,1.55,-0.91,-0.07,-0.72,1.54,-1.53
"ex1158",-0.14,1.29,0.17,2.11,1.72,3.15,0.81,1.74,0.26,2.59,1.65,3.81,2.73,5.57,4.38,4.26,3.92,1.90,0.68,1.57,-1.38,1.20,1.06,-1.41,-0.11,0.09,0.03,-1.39,0.39,0.30,-2.05,1.05,0.89,0.40,0.91
"ex1159",-0.07,0.08,2.21,1.80,1.55,4.26,3.98,4.51,5.34,3.27,3.37,1.93,0.88,1.25,0.46,0.54,0.98,0.38,-0.85,1.88,-1.29,-0.34,0.12,-1.99,-1.65,0.53,-0.26,1.18,-0.44,-1.41,1.10,0.20,0.43,-0.83,0.89
"ex1160",0.62,2.08,2.12,5.03,6.42,4.29,5.77,5.03,3.11,2.57,1.15,1.14,-0.72,0.72,1.40,0.82,-0.71,1.16,1.86,1.54,-0.68,0.69,0.58,0.29,-1.37,-1.16,0.44,-0.83,1.67,0.13,0.43,-1.01,-2.06,-0.17,0.14
"ex1161",1.34,0.32,2.61,1.80,2.19,5.66,5.32,3.05,1.45,3.21,2.37,3.40,1.58,0.69,1.24,0.92,0.80,-0.24,1.98,0.56,-0.46,-1.55,-0.10,1.16,-0.67,0.04,-0.42,0.65,-0.02,-0.18,0.74,-0.07,-2.40,-0.93,2.66
"ex1162",0.78,0.85,2.14,1.44,2.43,3.77,3.97,3.42,6.41,3.11,4.13,2.40,1.86,0.91,1.27,0.78,-0.01,-0.62,-1.72,1.73,-0.66,-0.89,-0.50,-0.43,-1.46,-1.55,0.43,-0.89,-1.66,1.08,1.46,-0.32,-0.60,0.12,-0.04
"ex1163",0.43,0.87,1.04,0.30,1.46,2.58,1.19,2.36,0.87,1.72,0.93,1.64,1.63,2.91,4.69,3.13,2.35,3.55,0.95,1.33,0.74,-1.82,0.65,-1.37,2.80,-0.82,0.24,-0.02,-0.33,-0.69,0.37,-1.10,1.49,-1.24,-1.57
"ex1164",-0.62,-1.75,1.27,1.19,3.32,4.05,3.98,4.08,2.62,2.10,2.52,1.42,-0.12,0.00,0.84,1.57,-1.61,-0.58,1.16,-0.13,-0.20,-0.04,-1.60,0.66,1.12,-0.45,0.17,2.34,0.72,0.22,1.63,0.67,1.28,1.27,-1.11
"ex1165",1.24,1.31,2.38,0.01,1.64,0.80,0.26,1.73,2.71,1.08,2.38,2.26,3.25,2.99,4.78,4.77,1.76,0.87,1.45,0.52,2.11,-0.68,0.25,-0.59,0.70,-0.61,0.50,-0.16,-0.35,0.55,-0.00,-1.02,0.31,-0.32,0.16
"ex1166",-1.72,1.86,2.19,3.41,3.93,6.11,5.69,5.96,2.10,4.33,2.21,2.50,-2.02,0.23,-0.23,-1.61,1.18,1.15,1.98,-0.15,-0.73,0.29,-0.25,0.50,-0.90,0.77,-0.48,1.14,0.78,-0.29,-1.38,-0.54,-1.02,-0.86,-1.43
"ex1167",-0.32,1.85,1.82,0.44,3.80,3.68,5.96,4.32,5.28,2.55,2.01,2.28,0.93,1.39,-1.26,0.91,0.64,0.21,-0.35,1.59,-1.27,-1.89,-0.90,0.28,0.52,0.78,1.62,-0.27,-1.05,-0.54,-0.01,-1.43,0.35,1.17,-1.46
"ex1168",-1.75,0.10,1.81,-0.38,1.19,2.40,3.30,3.91,2.11,2.24,3.48,2.99,1.75,0.94,1.79,3.00,0.53,0.31,-0.21,1.43,-0.81,0.25,0.52,0.62,1.07,0.13,0.20,0.79,-0.01,1.24,0.73,-0.89,-1.18,-0.36,0.91
"ex1169",-0.25,-1.44,0.51,-0.15,-0.02,-0.37,1.10,-0.75,0.80,0.99,0.28,3.66,3.87,5.39,6.33,6.57,4.41,2.13,0.93,2.40,0.66,-0.18,-0.00,-1.08,0.13,0.72,-0.36,-1.75,0.16,-1.08,0.89,0.82,0.82,-0.25,3.18
"ex1170",-1.13,1.13,0.90,-1.17,1.38,1.67,0.78,1.88,0.29,2.48,0.90,3.09,2.62,2.22,4.32,4.91,2.88,3.96,-0.31,-0.99,0.77,1.11,-1.59,0.05,0.62,-0.23,0.40,0.63,1.37,-1.27,-0.25,-1.14,0.18,1.22,0.41
"ex1171",0.39,0.18,0.66,3.82,2.45,3.76,4.96,2.97,1.42,3.81,2.60,0.29,-0.44,0.91,0.53,1.34,0.87,0.15,0.72,1.22,1.17,0.27,-0.68,-0.81,-0.02,0.18,-0.04,-0.50,-0.02,-0.16,0.09,1.37,-1.68,2.52,0.02
"ex1172",-3.00,0.40,1.25,1.23,3.24,2.01,0.27,1.61,0.95,2.05,3.02,1.45,2.20,4.20,3.97,4.71,3.87,2.03,0.04,-1.24,-0.98,0.40,-0.71,-0.94,0.10,-1.15,-0.46,-0.94,0.02,0.65,-0.81,0.59,1.03,-0.75,0.23
"ex1173",-1.73,0.31,0.88,2.71,4.89,3.92,5.61,5.88,3.37,1.57,2.78,1.83,-0.18,-0.27,-0.21,-0.44,0.86,0.47,-0.09,-0.53,0.50,-0.81,0.58,0.87,-2.07,-0.67,-0.54,0.68,0.59,0.81,0.03,-1.09,-0.40,-0.40,-0.33
"ex1174",-1.77,0.48,0.55,0.91,2.90,4.61,6.36,2.43,4.20,1.30,3.12,0.82,2.18,1.31,0.55,0.32,0.74,0.68,-0.81,0.28,-0.70,-0.35,0.08,0.40,0.69,1.14,0.61,-0.39,-1.27,0.37,-1.11,1.08,0.64,-1.05,-1.07
"ex1175",0.35,1.56,-0.96,0.44,-1.07,-0.67,1.90,-0.26,1.65,2.02,2.47,4.45,4.16,4.04,4.88,3.18,2.92,2.63,2.57,0.84,-0.07,0.64,0.42,1.78,0.90,1.52,-1.40,1.41,0.98,0.28,-0.72,0.34,0.07,-1.04,1.06
"ex1176",-0.87,-0.70,1.80,0.74,0.01,1.14,2.59,3.21,5.02,6.03,6.22,5.27,3.44,2.03,2.36,0.95,-0.74,1.96,0.26,1.44,-0.16,1.54,0.29,-1.06,-0.01,0.21,-0.65,0.54,0.67,-1.16,0.52,-1.41,-0.39,-1.16,-0.58
"ex1177",-0.00,1.46,0.13,1.17,1.58,1.61,2.18,2.68,1.34,0.84,2.51,2.09,1.92,4.25,2.19,4.82,1.51,2.65,2.05,1.06,-0.03,1.45,-1.01,-1.30,0.36,-0.84,-0.53,0.65,-1.48,-0.10,0.61,-0.25,-0.89,0.01,0.23
"ex1178",1.08,-0.45,0.51,-0.77,1.94,0.48,1.72,0.83,0.28,2.01,1.06,3.07,3.76,3.30,6.50,4.52,1.65,0.49,-0.30,1.49,0.18,-0.70,-0.16,-0.23,-0.31,-0.45,-0.21,-0.68,0.24,-0.37,1.19,1.64,1.89,0.54,-0.59
"ex1179",0.18,0.78,0.26,1.31,1.17,0.70,0.73,1.19,-2.13,1.97,2.77,3.16,3.61,6.03,5.08,4.62,2.60,3.16,0.50,-0.11,1.05,-1.19,-0.02,-0.20,-0.87,-0.12,-0.10,1.21,-0.83,-0.09,-0.23,0.45,0.10,-0.64,-0.11
"ex1180",0.68,0.07,-0.57,0.16,-0.56,-2.04,1.97,0.37,-0.31,1.88,2.26,3.09,5.07,4.04,5.58,3.57,2.97,2.07,1.82,1.86,0.72,-0.15,-1.27,-0.89,-0.25,0.49,0.51,1.33,0.72,0.65,-2.51,-0.13,1.92,1.24,0.17
"ex1181",0.15,0.22,1.44,-1.05,-1.04,0.29,-0.70,1.36,-0.50,-0.18,1.93,2.97,4.04,5.04,6.20,5.27,4.44,1.85,1.79,-0.07,-0.24,0.34,-1.68,-0.55,2.29,-0.53,-2.39,-1.03,-0.19,0.41,1.68,-0.63,-0.48,-0.23,-0.18
"ex1182",0.76,1.08,2.56,2.23,1.45,1.35,3.18,3.90,4.23,4.45,4.30,2.10,3.70,2.84,1.35,0.81,0.56,1.12,-0.44,-0.60,-0.52,-0.36,0.60,0.14,0.93,-1.10,-0.12,1.54,-0.72,-0.51,0.23,-0.46,0.42,0.04,0.40
"ex1183",0.80,-1.11,0.89,-0.01,-0.15,-1.25,-0.03,1.00,0.47,0.91,2.25,2.66,3.25,5.66,8.70,4.10,2.68,3.36,0.01,1.98,0.20,-1.02,-1.03,0.25,-0.70,1.41,-0.89,0.95,-0.81,-0.32,-0.84,1.73,0.32,-0.10,-0.03
"ex1184",1.33,0.83,0.40,2.95,1.77,3.38,4.48,5.00,4.82,4.11,3.74,1.57,1.22,3.96,0.92,0.45,-0.23,-0.13,0.41,-1.59,-0.02,1.16,-0.45,-0.50,-1.91,-0.22,0.78,-0.62,0.53,-1.87,-0.68,-0.04,-0.95,0.25,1.79
"ex1185",-1.28,0.18,1.79,1.93,2.70,4.06,5.32,3.56,4.40,2.88,3.21,3.05,0.72,1.04,-0.44,0.31,0.01,0.46,0.20,1.08,-0.54,-1.31,1.98,-1.07,0.62,-0.12,1.37,-1.35,-0.85,0.30,-2.55,1.17,0.98,0.85,-0.06
"ex1186",-1.51,-1.06,-0.04,0.39,-0.15,-0.51,1.98,0.82,2.56,4.98,4.26,4.83,3.64,3.51,1.93,1.46,0.40,1.50,0.28,1.75,0.16,-0.56,0.49,-0.42,-0.23,1.21,-0.24,1.26,-0.09,-0.59,0.11,-0.34,-0.48,0.68,0.58
"ex1187",0.56,1.01,3.33,2.94,2.65,5.92,6.41,3.51,4.84,2.35,2.16,1.25,-1.55,2.19,-0.12,0.79,1.17,-1.51,-0.80,0.46,0.89,2.00,-0.26,2.33,0.48,-0.37,0.43,-0.41,-1.51,-0.17,-1.19,1.12,-0.16,-1.28,2.04
"ex1188",2.17,2.14,0.82,2.96,2.19,4.05,6.29,3.84,3.89,2.71,3.19,1.48,0.61,1.15,0.45,1.09,-1.39,2.21,-0.90,0.63,0.10,0.48,-0.67,2.52,-0.72,1.67,0.04,-0.68,-0.55,-1.13,1.20,-0.47,-0.03,0.07,0.96
"ex1189",-1.31,-1.11,1.78,0.50,-1.07,0.23,1.94,1.91,3.66,3.31,4.07,3.43,3.35,3.98,1.67,0.85,1.47,0.62,-0.44,1.31,0.30,0.86,1.14,1.14,0.34,0.80,-0.40,0.33,-0.25,-0.57,-1.59,1.10,1.52,0.37,-0.88
"ex1190",-1.30,2.07,1.81,3.22,3.45,2.96,5.80,4.38,3.77,2.49,2.89,1.64,0.62,1.04,1.55,0.97,-0.19,2.75,1.38,-0.15,-1.34,-0.45,1.83,-0.07,0.11,-0.29,0.49,0.17,-0.51,0.77,-0.32,1.66,0.05,0.86,0.68
"ex1191",1.08,1.35,2.62,2.21,4.62,3.52,5.22,3.16,4.45,1.76,3.56,0.97,-0.07,-0.39,0.41,1.22,1.78,0.28,1.72,0.45,-0.52,-0.16,-0.46,0.11,-0.46,2.32,-1.02,2.15,0.19,-0.15,2.52,-0.63,0.55,0.68,0.83
"ex1192",-0.25,-1.32,-0.10,0.70,1.49,1.48,2.08,3.91,4.06,5.06,6.08,4.24,1.26,2.98,2.73,1.99,-0.41,-1.72,-0.74,1.48,-0.17,-2.18,-0.88,-0.89,2.19,0.60,0.61,-0.60,1.07,1.30,0.57,0.11,0.15,-0.94,-0.32
"ex1193",0.28,0.18,-0.15,0.14,1.23,1.99,3.01,4.43,1.46,3.70,5.51,3.04,2.69,1.30,0.08,0.40,-1.09,-0.00,1.57,-1.23,-0.21,1.86,-2.57,-0.95,0.12,0.38,-0.06,0.91,0.34,-0.43,0.31,-0.50,1.28,-1.19,1.06
"ex1194",-0.42,0.93,-0.50,0.30,1.13,-0.51,-0.23,-0.51,-0.23,1.72,0.72,1.13,2.23,4.26,5.73,5.16,2.54,2.35,1.86,0.24,-0.85,-0.05,0.10,-1.07,0.62,0.40,0.17,-0.35,-0.28,-1.82,-1.58,-0.25,1.67,-0.56,1.18
"ex1195",1.02,0.25,-0.56,-0.96,-0.68,2.51,1.86,1.11,1.67,-0.15,3.01,1.50,5.25,4.78,5.40,4.53,1.82,3.25,1.78,1.56,-0.29,-1.28,-0.31,0.50,-1.56,-0.58,0.65,-0.56,-1.07,1.52,-2.05,-0.10,-0.60,-0.82,0.40
"ex1196",0.43,-2.20,1.29,0.70,-0.45,0.91,-1.47,1.60,1.59,3.48,3.02,2.60,4.75,4.46,4.78,3.25,1.96,3.43,-0.76,1.74,-0.54,0.64,0.82,-0.50,-0.45,-0.34,-1.23,0.66,-0.45,1.53,1.22,-0.73,-1.21,-0.65,0.36
"ex1197",0.87,0.63,0.01,-1.91,2.04,0.99,1.31,0.88,0.30,0.49,1.61,5.24,2.70,5.35,5.69,2.40,3.64,2.94,2.23,1.37,-0.43,0.04,2.35,-0.84,-0.20,0.26,-0.47,0.45,-1.34,-1.05,0.13,0.74,-1.24,0.30,0.28
"ex1198",-0.40,1.52,1.29,0.69,2.87,3.34,3.32,2.77,2.22,3.10,2.20,1.40,1.51,1.78,1.50,1.45,1.66,1.56,1.06,-0.52,0.84,-0.04,0.63,2.65,0.18,1.56,-1.09,0.42,1.52,2.13,1.33,0.05,-0.27,-1.97,-1.44
"ex1199",-0.31,-0.53,0.58,1.59,1.77,1.67,1.66,2.15,3.57,4.33,5.11,6.39,4.70,3.11,2.61,2.65,-1.17,1.92,1.90,-2.05,-2.68,-0.67,-0.39,-0.47,1.25,1.29,-0.33,0.67,0.68,-1.00,0.59,-0.65,-1.58,-0.08,-1.22
"ex1200",-0.28,1.30,1.36,2.08,2.89,2.07,2.30,3.96,3.12,4.59,3.80,2.63,2.18,1.57,1.01,1.45,0.29,-0.62,-0.12,0.43,0.94,-0.13,-1.55,-0.71,-0.26,0.60,-0.93,-1.90,-0.80,0.07,1.25,1.35,1.94,0.59,0.07
"ex1201",1.55,1.79,2.87,2.62,3.07,5.31,4.24,4.68,5.06,3.20,2.31,2.16,-0.16,1.38,0.61,1.43,1.13,-0.86,0.61,-0.05,0.26,-1.36,0.80,0.21,-0.52,-0.19,0.65,-0.94,0.15,0.96,-1.58,-0.59,-1.85,0.72,-0.18
"ex1202",0.73,-0.65,0.06,-0.74,0.99,0.14,2.99,3.15,1.25,2.99,4.60,5.27,3.05,6.08,3.50,2.86,0.82,-1.26,1.34,0.87,-0.25,0.80,-0.76,-1.02,0.67,0.53,-0.37,0.92,0.68,-0.56,0.22,0.19,0.58,-1.51,-1.05
"ex1203",-0.66,0.15,2.08,0.40,1.09,5.16,6.44,4.35,4.84,2.97,4.35,0.25,2.45,1.14,2.30,-0.83,1.81,-0.03,-0.67,-0.33,0.49,1.27,-0.36,0.82,1.36,0.64,0.93,0.99,2.35,-1.43,1.99,1.33,-1.43,0.74,0.16
"ex1204",-0.63,1.12,0.76,1.11,1.45,2.33,2.60,6.06,2.94,4.73,2.96,3.36,2.11,1.40,1.18,-1.40,-1.30,0.44,-0.73,-0.47,-0.42,-0.12,-0.43,-0.43,-0.14,1.13,-0.53,-0.11,0.32,0.53,0.16,0.22,-1.55,0.59,0.72
"ex1205",-0.38,0.87,-0.13,1.45,1.08,3.51,1.27,2.50,1.99,3.67,1.72,2.23,1.33,2.38,2.54,2.53,2.84,1.05,0.99,0.33,-1.66,-1.65,0.52,-0.21,-0.47,-1.18,-0.14,-0.61,-0.18,-0.78,0.46,-0.47,-0.71,-0.27,-1.11
"ex1206",-0.37,-0.12,0.42,0.83,0.24,1.76,1.74,3.10,4.22,3.73,6.09,4.40,3.12,3.08,1.99,2.93,1.51,0.96,0.52,-0.38,-1.23,0.16,-2.08,-0.82,-1.59,0.30,-2.76,-1.01,-0.68,-0.45,-1.25,-0.52,1.20,0.46,0.70
"ex1207",-0.32,-0.88,0.61,0.65,1.17,1.75,3.63,4.06,4.57,5.12,5.08,4.27,2.33,2.14,2.50,1.61,0.38,0.88,-1.24,0.58,0.16,0.71,1.23,1.60,-0.52,1.34,0.61,2.41,-1.75,-0.32,2.66,-1.05,-0.13,0.14,-0.67
"ex1208",-1.35,0.63,2.96,2.56,3.41,5.66,4.16,4.74,3.22,1.63,0.88,0.69,0.31,0.61,1.97,-0.32,0.17,-0.65,2.16,1.32,0.61,0.77,-0.52,-0.21,0.82,-1.30,0.51,-0.44,-0.63,-0.86,-1.41,0.61,-0.29,0.33,1.52
"ex1209",-0.04,0.13,-1.12,0.14,0.26,1.67,1.61,1.67,3.27,3.12,4.92,5.24,3.25,2.91,1.97,0.99,0.65,-1.94,-1.27,-0.18,-1.31,-0.04,-0.34,-0.61,0.55,1.32,2.03,1.24,0.43,1.00,-0.53,1.11,-0.29,0.15,-0.27
"ex1210",1.63,-1.09,0.97,0.03,1.40,4.07,5.33,1.53,3.21,3.69,2.23,2.93,2.39,2.87,2.33,-0.83,0.68,0.07,0.78,0.19,0.30,0.50,-0.06,-0.81,-0.34,0.24,0.58,1.67,-0.20,-0.85,0.87,1.32,1.69,-0.40,-0.23
"ex1211",0.59,0.71,0.12,0.67,1.38,1.35,3.14,4.34,4.86,4.43,4.76,4.06,1.37,1.11,0.15,-0.73,-0.70,0.45,-1.08,1.61,-0.39,-0.58,0.71,-1.46,-0.43,0.63,0.13,0.29,0.45,-0.11,-0.41,-0.95,-0.32,-0.03,-0.61
"ex1212",0.66,0.69,1.06,2.42,2.07,3.51,4.57,5.76,3.78,3.91,1.86,0.57,2.34,0.92,1.43,0.43,0.73,0.91,-1.29,-0.41,-0.03,-0.93,2.18,0.78,1.14,1.34,-0.21,1.45,-0.17,-0.09,1.72,-0.59,-1.63,-1.71,-0.09
"ex1213",1.16,0.83,-0.77,-0.72,-1.16,-0.60,0.89,1.58,2.74,4.89,4.68,5.80,5.90,3.93,2.08,2.75,1.37,1.80,1.14,0.03,0.70,-0.86,0.80,-0.93,0.81,-0.76,0.63,1.40,1.02,1.88,-1.00,-0.40,-0.74,0.11,0.57
"ex1214",-0.05,1.83,0.30,-0.17,-0.75,-1.27,-0.72,-0.55,-0.63,1.63,1.56,1.75,5.08,4.95,6.38,3.84,4.08,4.33,2.39,-1.26,-0.80,0.79,-0.54,0.49,0.41,0.65,2.12,-0.07,1.11,0.58,-0.28,-1.52,-1.41,0.74,-0.14
"ex1215",-0.31,1.98,3.14,3.01,2.26,3.53,1.92,4.06,3.42,2.99,1.03,0.89,1.51,2.62,4.01,2.10,3.05,-0.60,1.58,1.66,-0.37,0.32,-1.14,1.57,-0.29,0.74,0.29,-1.44,-0.65,-0.15,1.40,0.37,-1.00,-0.12,0.13
"ex1216",-0.78,-1.76,-0.51,0.31,0.01,0.01,1.58,1.24,1.96,3.98,3.50,3.38,4.79,5.35,5.17,1.53,0.20,0.32,2.29,0.94,0.53,-1.24,0.72,-0.88,-0.83,-1.76,-0.35,-0.04,-2.20,0.48,-1.52,0.36,-0.64,0.76,0.30
"ex1217",-1.01,-0.62,2.16,2.66,3.15,1.09,2.51,1.96,1.26,2.56,2.03,2.86,3.62,2.19,3.85,3.12,2.94,0.47,-0.56,-0.72,0.38,0.53,-0.55,0.34,2.27,0.61,1.65,-0.79,-1.11,0.21,0.95,0.41,0.30,0.95,-0.11
"ex1218",1.91,-0.39,2.32,1.72,1.38,2.31,3.38,3.12,4.61,5.28,4.65,2.60,2.87,1.67,1.74,1.56,-1.81,-0.34,-0.01,-1.67,0.76,-0.98,0.06,0.36,2.40,-0.26,-1.20,1.51,0.74,-0.18,1.22,1.39,0.01,1.17,-1.62
"ex1219",0.05,-1.08,-0.46,1.07,-1.29,2.99,2.45,3.19,4.32,6.10,6.71,4.78,2.74,4.66,3.36,0.82,-1.93,-1.32,-0.34,-0.25,-0.02,0.43,-0.00,0.82,1.39,0.76,-1.51,0.59,0.68,-0.96,1.98,0.54,-0.86,0.13,1.09
"ex1220",0.19,-0.10,2.33,4.42,3.29,4.18,6.02,3.55,1.95,3.89,0.38,0.86,1.75,-0.77,0.00,-0.52,1.46,0.85,0.33,1.07,-1.67,0.70,-0.38,1.10,-0.27,-0.18,-0.57,-0.79,-0.01,0.69,0.28,0.53,-0.52,1.07,0.01
"ex1221",-1.73,0.61,1.25,2.36,2.36,3.62,7.37,4.97,3.83,1.82,2.34,2.55,0.97,-0.51,0.53,1.05,-0.40,0.86,1.39,-0.27,1.80,-0.71,0.14,0.30,0.87,-0.54,0.54,0.27,-0.57,-0.30,-0.74,-0.92,-0.03,-1.12,0.88
"ex1222",0.13,-1.00,0.83,-0.25,-0.01,1.54,0.67,0.91,1.69,1.11,1.92,4.58,4.11,6.18,6.08,2.56,4.00,2.72,1.02,-0.44,0.80,1.15,0.12,0.07,0.07,-1.16,-0.58,0.09,1.35,0.20,0.48,-1.40,0.18,0.88,-0.62
"ex1223",-0.21,0.87,1.96,-0.45,-0.62,-0.69,2.61,0.71,1.52,3.20,4.12,3.96,2.84,2.42,4.49,1.54,2.67,0.38,2.92,-0.34,-0.67,-2.60,0.60,-0.43,-0.03,0.65,1.36,1.11,0.55,-0.83,-1.27,1.70,1.92,-1.26,0.95
"ex1224",2.32,0.47,2.35,2.47,6.55,5.13,4.52,3.67,4.96,0.45,1.96,1.52,-0.29,1.19,-1.62,-0.03,1.30,-0.51,1.45,0.51,0.85,-1.85,0.87,0.02,-1.02,-0.70,0.71,-0.54,1.71,-0.55,-1.05,0.84,0.16,0.10,-1.40
"ex1225",-0.38,0.60,0.46,1.51,1.35,1.69,2.16,4.65,4.25,3.70,5.97,4.17,5.40,3.39,2.32,3.77,0.33,2.05,1.67,-1.63,0.01,0.74,0.26,0.17,1.07,-2.05,1.40,1.20,0.39,0.78,0.32,0.65,1.17,-0.30,0.90
"ex1226",-0.18,-0.78,0.92,-1.12,0.03,2.27,1.34,1.92,4.81,4.45,5.96,5.75,4.26,2.93,2.18,0.62,-0.15,-0.25,0.84,0.12,-0.48,0.46,-1.27,-0.58,0.06,0.49,-0.03,-0.14,0.44,-1.07,-0.00,0.34,0.56,1.44,1.87
"ex1227",-0.17,0.35,-0.01,-0.50,-0.76,0.52,1.09,-0.91,-0.01,-0.54,2.51,4.60,3.36,4.35,7.28,5.81,5.88,1.45,2.31,0.01,0.62,1.74,2.69,0.62,0.68,1.11,-3.04,0.79,-0.58,0.91,-0.73,-0.07,-1.46,0.39,1.35
"ex1228",0.59,-1.37,1.44,-0.60,0.57,-0.02,0.77,1.18,2.81,4.23,4.84,4.70,6.17,5.04,1.33,1.73,-0.06,3.42,1.90,-0.80,0.96,0.13,0.10,-0.57,-0.58,1.11,-0.75,1.13,-1.51,0.30,0.18,0.69,0.06,-0.54,-1.06
"ex1229",3.23,-0.35,0.75,-0.79,0.23,1.50,3.15,2.41,3.36,5.05,1.58,3.19,4.11,2.05,3.73,2.37,1.26,1.48,0.24,1.14,0.42,1.89,0.83,-0.27,0.97,-0.79,-0.35,0.91,-0.92,1.45,0.32,0.41,1.39,0.62,-0.35
"ex1230",1.37,-0.80,2.35,-0.36,-0.45,2.22,0.05,0.95,2.91,3.38,2.70,6.33,3.78,1.36,4.65,3.39,0.70,-0.08,2.28,1.13,-1.98,-1.58,-0.64,-0.51,-0.46,-1.38,0.24,0.78,-2.32,0.89,-0.25,-1.16,-0.12,0.85,1.14
"ex1231",-1.99,0.05,-0.97,0.46,0.60,-0.68,2.09,3.01,3.53,5.36,5.07,3.23,6.02,3.10,3.50,3.08,2.15,0.61,-0.65,1.57,0.31,0.16,1.05,0.35,-0.12,0.19,-2.08,0.61,-0.81,-2.17,0.39,0.81,-0.96,1.70,-0.21
"ex1232",-1.15,0.27,0.52,1.64,3.14,3.72,4.22,1.87,4.88,3.77,4.96,2.28,0.48,1.41,-0.19,0.29,-0.16,-1.39,-1.10,-2.17,0.24,0.39,-0.54,0.97,0.45,1.29,1.74,-1.54,-1.34,0.82,-1.18,1.02,0.72,0.86,-0.41
"ex1233",2.13,1.58,0.84,0.90,1.82,4.78,1.35,4.16,2.22,2.30,1.40,2.00,2.16,2.87,2.73,2.47,2.31,0.46,0.42,-0.22,-0.21,-0.73,1.02,-0.08,0.08,-0.22,0.39,-1.09,-0.24,0.43,-0.92,0.52,0.94,0.11,-0.93
"ex1234",-0.22,-0.61,2.69,5.07,3.92,1.84,6.23,5.03,5.48,2.83,2.10,2.70,1.56,-0.17,1.13,0.97,1.52,-2.26,-0.83,-1.45,-0.95,-0.81,-0.14,-0.09,-0.33,0.06,-0.54,0.40,-0.01,3.25,0.86,0.17,-0.21,-0.71,0.11
"ex1235",0.64,0.27,-0.82,-0.34,-0.70,0.45,0.67,2.34,1.61,3.06,4.80,5.25,3.16,4.42,1.35,1.36,0.25,0.49,-0.63,-0.75,-0.84,0.19,-0.94,-0.99,-0.17,0.03,-0.00,1.37,0.95,0.01,1.94,1.47,-1.88,2.27,-0.02
"ex1236",0.39,-0.28,-0.45,0.90,3.17,3.24,4.73,4.02,3.27,2.51,1.76,1.64,3.18,0.34,2.82,0.30,2.72,-1.04,-0.63,-0.82,-1.03,-0.26,-1.00,-0.66,-0.47,-0.96,-1.44,1.64,1.22,0.22,-0.31,0.96,1.58,2.12,-1.02
"ex1237",-0.24,2.00,0.01,2.58,3.50,3.49,4.60,4.31,2.34,4.43,3.13,3.99,3.63,2.68,4.21,-1.47,0.57,0.16,-0.90,-0.75,-0.38,0.45,0.86,0.37,0.98,-0.35,-0.73,0.12,-0.10,0.20,0.19,-1.20,1.41,-0.23,0.95
"ex1238",-0.22,2.54,2.27,0.26,1.34,4.62,3.80,4.23,4.38,1.99,1.73,2.12,0.16,1.97,3.22,0.83,1.87,1.38,-1.20,0.98,0.27,-1.58,-0.22,-1.26,-0.86,-0.15,-1.13,-1.11,-0.57,0.97,-0.08,-0.10,-0.48,-0.67,-0.27
"ex1239",-0.76,-0.70,0.31,-0.75,0.74,-0.18,-0.42,0.18,1.82,0.76,3.02,4.19,4.03,7.16,4.86,4.54,4.48,1.97,0.82,1.12,-0.40,-0.08,-0.91,1.18,0.30,0.08,0.91,0.07,-1.48,0.60,-0.95,-0.36,0.06,1.63,-1.10
"ex1240",0.99,1.51,2.02,4.04,3.45,3.26,6.10,4.74,5.99,4.26,2.92,0.69,2.79,0.19,1.40,2.22,0.79,0.11,-0.85,-0.58,-1.07,0.17,0.19,-1.15,-0.53,0.55,0.09,0.22,1.37,-0.03,-0.59,1.49,0.94,1.66,1.37
"ex1241",-0.12,1.00,1.66,4.44,3.59,3.16,4.32,4.56,4.35,3.25,-0.07,1.25,1.83,1.24,2.08,0.42,1.09,0.66,1.14,-0.26,0.34,-1.15,-1.48,-0.73,0.61,-1.80,-0.24,0.58,-1.42,1.71,-0.09,0.29,0.29,-1.12,0.63
"ex1242",0.03,-0.36,-0.76,0.43,0.90,2.01,2.46,0.06,-0.09,0.38,0.96,3.39,2.82,4.27,3.80,4.81,5.40,0.96,2.16,-0.43,0.76,-0.72,-0.58,-1.91,-0.17,-0.04,-0.04,-0.67,-1.17,-0.98,-0.04,0.68,1.75,-1.45,0.44
"ex1243",-0.79,-2.54,0.89,0.88,4.33,3.93,3.64,1.77,3.26,3.41,2.54,0.57,-0.31,2.31,2.59,1.15,1.03,0.67,0.75,1.20,0.05,-0.18,-0.13,1.02,-1.69,0.58,-0.85,0.60,-0.12,0.94,0.13,-1.79,0.26,-0.67,-0.90
"ex1244",-0.44,0.71,0.13,-0.15,-1.83,0.81,-0.66,2.33,1.74,1.61,1.59,2.67,3.33,4.50,6.91,3.23,2.58,2.68,1.87,-0.01,0.89,0.40,-0.48,-0.04,0.79,0.77,-1.03,-3.03,-0.79,0.53,-1.36,0.97,-0.62,-1.59,0.82
"ex1245",-0.23,2.32,1.79,1.38,1.92,2.31,2.53,2.49,2.12,2.37,3.86,2.52,1.28,2.91,1.79,2.21,2.62,0.44,1.97,-0.58,-1.91,-1.09,-0.31,-2.05,-0.58,0.31,-0.47,-0.56,0.18,0.89,0.90,-0.30,-0.24,0.62,-1.01
"ex1246",-0.28,0.39,2.00,-1.11,0.87,-0.54,-0.04,-0.47,-0.35,1.94,1.57,2.32,4.86,5.60,6.27,3.51,4.66,1.52,1.54,0.55,0.58,-1.29,-0.02,0.03,0.84,0.04,0.21,-2.06,-0.37,0.14,-0.53,1.11,-0.67,-0.98,-0.07
"ex1247",0.12,1.27,3.06,3.26,4.63,3.67,5.90,3.51,4.05,3.43,1.83,1.53,1.09,-1.23,1.62,0.60,-0.46,1.04,0.49,0.07,0.80,-0.33,1.18,0.20,0.96,-0.35,0.52,0.33,-1.30,0.47,0.75,-0.33,-0.48,0.07,-0.48
"ex1248",1.04,1.29,1.06,2.90,3.39,3.12,4.02,1.35,2.11,1.82,3.67,1.60,2.44,4.36,3.43,1.49,1.97,0.47,0.25,0.72,3.31,1.16,0.02,1.01,-1.64,1.08,0.18,-0.92,-0.18,-1.01,-0.21,0.52,-0.77,1.08,0.89
"ex1249",0.41,-0.05,2.00,1.03,0.28,1.22,1.14,2.19,3.05,3.70,3.51,2.89,5.36,4.65,3.19,0.98,1.22,1.48,-1.24,-0.38,1.26,2.10,0.90,-0.65,0.42,0.06,1.66,1.09,1.06,1.16,1.82,-1.48,1.24,-0.10,-0.86
"ex1250",0.92,1.09,-0.48,-2.05,-1.34,1.97,1.48,0.75,-1.33,1.11,2.34,2.68,4.46,5.74,7.96,4.83,3.93,5.02,2.98,1.33,-1.48,0.60,1.01,-0.52,-1.20,0.32,0.01,-0.23,1.40,-0.54,0.52,0.53,-0.90,-0.88,0.63
"ex1251",-1.06,-0.16,-0.52,-0.18,2.00,2.82,1.89,4.18,5.25,3.12,5.01,4.14,2.27,4.35,0.19,-0.02,0.94,1.90,-1.00,-1.45,0.87,1.46,0.65,-1.51,-0.88,2.36,-0.73,-0.43,0.56,1.19,0.95,-0.66,0.89,0.33,-1.56
"ex1252",-0.75,0.78,0.00,0.76,-0.16,2.23,1.96,4.55,2.37,3.75,6.23,4.79,4.43,4.39,3.48,0.79,-0.41,1.11,-0.97,-0.83,-1.12,-0.96,0.30,-0.91,-0.11,0.37,-0.57,-1.40,0.80,-0.01,-0.73,-1.02,0.58,-1.06,0.95
"ex1253",0.44,1.28,0.34,0.76,2.31,3.41,5.00,4.96,3.09,4.67,1.76,2.86,2.35,0.78,0.53,0.96,-1.59,-1.39,1.03,-0.44,-0.87,0.38,0.87,0.43,-1.10,-0.34,-1.09,-1.99,-0.15,0.26,0.20,0.83,0.74,0.75,0.83
"ex1254",0.47,3.43,2.82,-1.09,1.65,3.41,4.83,4.49,3.12,3.84,3.04,1.79,2.06,-0.10,-0.97,2.02,0.92,-0.62,-1.36,-0.78,-1.64,1.33,-0.06,0.29,-0.55,-1.16,-0.99,-0.34,-0.40,-0.28,0.90,0.29,1.03,-1.71,-0.70
"ex1255",-1.95,2.42,-1.12,0.36,-1.14,1.12,0.61,3.38,3.51,3.59,5.40,5.34,5.04,4.81,4.23,1.88,1.59,0.53,-0.11,-0.58,0.94,-0.14,0.31,0.70,-0.18,-0.44,0.13,1.29,0.26,0.63,-1.52,-1.82,-0.44,0.34,0.78
"ex1256",-0.32,1.86,0.19,0.93,1.06,3.16,2.41,3.88,-0.04,2.99,1.74,3.10,1.21,3.94,3.42,4.26,3.09,3.63,2.54,0.80,-0.74,-0.90,-0.11,1.61,-0.10,-1.69,0.34,0.34,-1.15,-1.37,0.97,-0.54,1.34,1.34,0.12
"ex1257",-2.31,0.32,-0.74,-2.00,0.40,2.45,-0.35,0.83,2.27,3.38,4.08,4.22,4.29,6.74,4.11,2.84,2.05,2.06,1.22,1.26,-0.10,1.01,-1.14,-0.15,-1.60,-2.86,0.12,-0.48,-0.19,-1.01,0.43,-1.04,0.92,-0.38,0.69
"ex1258",1.49,-0.49,0.16,1.34,1.57,0.48,1.42,1.92,1.92,2.47,3.85,4.65,4.74,4.43,2.50,3.62,1.22,2.05,1.56,-0.32,-0.04,-1.00,1.12,-1.15,-0.45,0.07,-0.49,0.86,0.71,0.15,-1.15,-0.16,-0.17,0.99,0.32
"ex1259",-0.51,-0.35,-0.13,-0.27,1.12,0.24,-0.76,0.73,-1.25,2.32,2.20,1.64,5.17,4.60,5.78,4.50,5.30,2.21,1.98,0.48,0.50,2.20,-0.07,0.22,1.65,-0.42,-0.68,-0.37,0.43,-0.60,-0.99,0.10,-0.85,0.93,0.52
"ex1260",-0.51,0.47,0.19,-0.58,1.56,2.76,1.44,5.49,4.70,4.98,5.37,3.86,3.37,1.52,2.47,-0.52,0.82,0.03,-0.92,-0.15,1.37,-0.55,-0.94,-1.60,0.29,-0.84,0.84,0.64,1.08,-2.39,1.11,0.49,-2.17,-0.31,0.05
"ex1261",-0.41,-1.08,0.64,-1.07,-0.21,1.37,0.71,0.80,3.49,4.21,4.42,4.13,4.86,4.14,3.30,1.05,1.52,0.98,-0.03,-1.26,1.00,2.46,1.23,-0.73,1.12,-0.03,0.53,-0.68,0.01,-0.19,0.23,-0.88,1.43,-1.31,0.54
"ex1262",0.34,-0.35,0.72,0.71,3.62,2.49,3.97,1.99,3.47,3.72,6.10,3.96,2.18,1.52,1.82,0.24,-1.04,1.44,-1.73,0.38,0.78,0.55,1.03,2.28,-0.46,0.21,0.15,0.27,1.18,-0.69,-0.15,-0.07,-0.82,1.29,-0.39
"ex1263",-0.89,1.64,1.62,1.24,2.78,2.75,3.78,3.51,4.66,4.13,6.75,3.79,0.81,2.29,2.82,1.90,1.53,-0.31,0.56,2.12,0.97,-0.41,0.19,1.55,-0.67,-0.90,0.72,0.54,-0.26,-0.71,-1.04,-1.59,1.00,0.56,1.08
"ex1264",-1.15,0.28,0.66,0.89,2.71,3.23,0.91,2.53,3.11,4.12,3.31,1.41,1.09,1.10,3.35,1.69,-0.04,1.07,0.40,0.01,-0.27,0.21,-0.61,1.24,0.16,-0.10,0.86,-0.65,-2.43,-1.52,-0.47,-0.34,-0.35,2.15,-1.09
"ex1265",-0.22,0.68,0.22,0.52,2.29,2.63,3.97,4.71,3.89,4.50,5.19,2.20,1.44,2.04,0.66,0.50,-0.72,0.57,1.48,0.52,-1.48,-0.69,0.13,-0.94,-1.18,-1.25,1.78,-0.49,1.90,-2.17,-1.64,-0.15,-1.63,-1.17,-1.17
"ex1266",1.52,0.87,1.03,2.07,0.96,1.26,3.52,1.79,1.65,2.76,3.01,4.34,0.92,1.94,3.21,1.58,2.34,1.04,1.21,1.00,1.71,0.02,0.22,0.94,-0.08,-0.67,-0.37,0.30,-2.04,0.29,1.47,-0.04,0.11,0.77,0.61
"ex1267",1.92,0.61,0.52,0.30,2.21,1.19,1.48,2.48,1.95,3.71,1.11,2.94,3.81,3.06,3.68,2.80,1.06,1.77,-0.14,0.88,-0.55,-2.15,0.16,0.47,1.43,-0.64,-0.30,1.33,1.18,-1.29,-0.24,-0.39,0.78,-1.96,-0.94
"ex1268",-1.82,-0.72,0.62,3.31,2.34,4.96,4.37,5.27,4.56,3.61,3.90,2.83,2.90,1.22,0.71,0.74,-0.47,2.06,0.34,1.07,-0.07,1.11,0.22,-0.49,-1.75,-0.27,0.05,-1.88,-0.93,0.76,0.07,0.98,-0.33,-0.29,0.35
"ex1269",-1.44,-0.17,-1.55,0.70,0.83,3.19,1.21,1.86,3.51,4.46,2.98,7.28,4.04,2.80,2.86,1.74,0.92,1.81,0.38,-1.01,-0.07,-0.10,1.41,1.08,-0.14,-0.36,0.08,1.68,0.53,-0.67,-1.34,1.25,-0.61,0.73,-0.45
"ex1270",-1.37,-0.54,-0.26,-1.05,0.41,-1.67,1.40,-0.60,1.61,0.92,1.98,3.19,4.80,3.86,5.48,2.80,3.82,2.01,1.86,0.63,0.27,-0.76,0.23,0.59,-1.67,0.57,2.15,0.41,-1.38,0.10,-1.33,0.56,1.33,-0.71,1.44
"ex1271",-1.57,0.33,-1.09,2.35,-0.17,0.40,0.91,3.42,3.49,5.61,5.29,3.96,4.02,3.05,2.14,1.28,0.67,-0.74,1.14,-0.03,0.48,-0.74,-0.23,-1.07,0.38,-0.91,-0.76,1.31,0.83,-1.79,0.35,0.38,0.33,0.55,-0.31
"ex1272",-0.46,1.58,1.42,2.71,2.26,3.12,6.05,5.19,3.07,5.54,1.07,0.89,1.54,2.14,0.20,0.23,0.47,0.56,-0.75,0.13,0.13,0.45,-0.49,0.36,1.18,0.83,0.41,1.06,0.18,-0.31,-0.95,-1.53,0.12,-0.09,-1.32
"ex1273",-0.62,-0.22,-0.19,-0.03,1.59,0.61,1.49,0.59,1.82,3.79,6.49,6.98,4.46,3.44,4.29,2.93,2.01,1.58,1.23,0.98,1.92,-0.77,-1.09,-0.36,0.18,1.81,-0.11,0.24,-0.92,-0.92,-1.29,-2.03,0.64,0.23,-0.03
"ex1274",-0.19,0.30,0.73,2.09,2.02,4.49,5.03,4.58,3.51,4.10,3.05,1.51,2.17,1.49,0.66,1.79,0.24,-1.75,0.53,0.47,1.43,-0.69,0.60,-0.70,-0.15,-0.33,0.21,0.06,0.18,0.32,0.78,1.09,1.08,-0.63,1.53
"ex1275",1.48,-0.79,0.07,0.14,1.58,0.65,2.30,2.87,0.97,0.73,1.82,3.15,2.48,3.04,3.83,4.60,3.28,1.58,0.78,-0.33,-0.73,1.47,-0.18,-1.17,-0.84,0.74,-0.62,0.26,-0.22,1.71,1.37,0.38,-1.31,1.44,-1.53
"ex1276",-0.30,0.34,0.19,-0.86,-0.41,-0.41,1.76,2.35,1.30,3.02,3.47,3.66,2.05,4.46,2.89,3.24,2.71,3.42,2.33,1.42,0.30,-0.67,1.88,0.43,-2.34,0.45,0.77,0.01,2.26,0.98,-0.62,-0.02,-0.00,-0.51,-0.17
"ex1277",-1.91,0.71,1.35,4.05,4.02,4.55,5.88,4.33,5.23,3.54,3.16,1.08,0.52,0.26,1.19,0.37,-0.08,0.61,1.09,1.01,-1.37,0.97,0.50,-0.84,-0.44,1.09,0.33,0.32,-0.08,0.15,0.87,0.67,0.56,-0.36,0.30
"ex1278",-0.30,-0.78,-1.48,0.22,-0.08,-0.19,0.46,0.65,2.66,1.61,2.13,4.63,3.60,4.34,6.15,3.55,0.60,2.29,0.13,0.91,0.52,0.47,-0.88,-0.25,-1.16,0.97,-1.11,1.75,0.19,-0.91,-0.88,-1.24,-1.63,-1.53,0.28
"ex1279",-0.95,0.96,0.46,0.79,1.61,1.69,3.27,3.42,3.66,5.64,4.60,5.45,3.39,3.62,0.61,-1.89,0.10,-2.14,-0.87,1.26,0.67,0.75,-0.55,1.22,-0.12,-1.42,-0.46,1.13,0.26,-0.05,0.35,0.04,1.99,-1.55,0.41
"ex1280",0.48,-0.57,1.15,-0.25,0.88,0.69,3.95,3.27,4.98,5.14,4.57,4.74,4.41,2.20,2.47,-0.17,0.62,1.52,0.08,-0.91,-0.63,0.15,-0.16,0.39,-0.14,-0.68,-0.60,0.60,0.90,0.91,-0.90,-1.93,1.45,-0.75,-0.18
"ex1281",-0.05,0.50,0.74,0.35,-0.16,0.25,-0.78,0.39,1.12,-0.19,4.16,4.94,3.03,5.53,4.18,5.19,2.82,1.85,1.63,1.83,1.40,-0.48,-0.19,-0.28,0.34,-0.81,0.81,-0.24,-0.72,1.15,-0.55,-0.05,0.09,-1.44,0.16
"ex1282",-0.03,0.24,0.69,2.98,0.92,1.48,4.88,4.56,2.14,5.27,5.59,3.01,1.92,0.53,-0.61,2.46,1.49,-1.24,-0.02,-1.12,-0.47,-0.39,0.07,0.54,0.40,1.62,-0.12,0.52,0.79,-0.67,1.05,-1.33,-0.75,-1.60,0.35
"ex1283",-0.11,-0.47,-1.06,0.53,-0.01,1.07,1.72,0.81,0.62,1.52,2.16,1.67,3.06,4.28,3.27,4.73,2.15,0.98,1.58,-0.83,0.35,-1.09,2.68,-0.92,-0.33,-0.33,-1.67,0.14,0.93,1.63,0.13,1.23,-0.96,0.58,-0.14
"ex1284",0.88,-1.19,-0.29,-0.16,2.57,-0.29,-0.28,3.51,3.19,4.75,5.72,4.21,4.70,3.62,2.35,2.21,-0.54,1.38,1.39,-0.90,0.42,-0.55,1.45,-0.46,-0.51,1.94,-0.26,-0.77,-1.74,0.60,0.33,-1.64,0.31,0.71,0.47
"ex1285",1.05,0.57,0.74,0.37,3.35,2.57,4.34,2.02,3.69,3.57,1.22,3.77,2.31,2.47,2.54,1.31,2.04,1.56,1.77,-1.53,-0.93,-0.24,0.01,-0.27,-0.02,-0.31,0.05,-0.65,0.64,-0.46,1.95,-1.37,0.40,1.58,-1.93
"ex1286",-0.35,1.18,-1.00,-0.22,0.11,1.53,0.48,-1.55,0.07,2.07,3.19,2.92,5.29,4.17,5.07,5.20,3.66,2.80,1.31,-0.18,0.69,0.84,0.32,-1.23,0.53,0.71,-0.82,-0.17,-0.04,0.22,0.39,1.46,-0.75,1.18,0.12
"ex1287",0.14,0.47,-0.67,0.95,0.22,0.21,0.35,1.61,0.39,1.37,2.86,0.63,2.89,5.61,4.53,5.10,2.56,2.01,1.98,2.02,1.29,-1.14,1.25,-0.84,-2.26,-1.12,1.60,-0.09,-1.12,-0.20,0.69,1.14,0.41,0.57,0.08
"ex1288",-0.19,-0.18,-0.66,0.20,1.52,2.13,1.78,2.02,3.72,1.90,1.53,1.38,1.88,4.75,5.25,3.76,3.68,2.05,-0.03,2.89,0.23,1.00,-2.86,1.18,0.80,0.03,-0.75,0.44,-0.71,0.43,0.39,-0.24,-0.07,0.40,0.40
"ex1289",-0.11,0.12,0.87,1.31,0.60,0.21,1.67,2.43,3.43,4.64,3.74,4.08,3.47,2.44,2.22,2.09,0.38,-1.10,0.91,0.38,-1.01,0.15,-0.11,-0.99,-2.18,1.89,-0.72,-0.04,0.94,0.94,0.29,1.29,0.25,-0.27,0.11
"ex1290",0.59,0.68,1.17,1.48,4.56,3.93,5.08,4.18,4.08,3.24,2.04,1.72,0.71,-0.17,2.17,1.80,-1.15,-0.21,2.07,0.09,0.20,-0.54,0.57,-1.65,-2.25,0.14,1.33,0.94,0.10,0.41,0.89,-0.86,2.12,-0.25,0.58
"ex1291",-0.44,3.51,1.70,1.40,2.54,3.04,4.12,3.51,3.91,4.99,3.39,0.68,2.76,2.51,1.43,-0.99,1.18,1.25,-0.72,0.43,-1.12,0.14,0.47,0.32,0.07,-1.50,-0.36,-0.31,-0.94,0.45,0.46,-1.78,0.07,-1.30,1.23
"ex1292",-0.55,1.94,0.21,1.94,1.61,3.36,2.70,2.23,4.41,0.56,1.49,2.83,1.87,3.58,0.70,1.80,1.64,2.66,1.58,-0.46,-0.22,-0.43,0.17,2.39,-0.84,0.65,0.52,0.60,0.21,-0.05,0.39,-0.22,-0.11,1.20,0.37
"ex1293",0.54,0.03,-0.30,-0.32,0.33,3.78,3.35,2.36,3.41,3.09,5.71,3.14,3.97,3.75,1.13,1.49,-2.09,0.42,-0.16,1.77,0.66,1.71,-1.05,-1.31,-0.26,0.82,-0.81,-0.41,1.60,-2.13,-0.46,0.63,-2.92,-1.40,0.01
"ex1294",-0.33,0.17,0.27,-0.27,1.51,1.56,2.23,1.56,0.36,1.01,2.65,3.74,2.71,2.70,3.39,1.97,1.96,1.94,2.13,-0.20,1.67,0.88,-0.31,-0.19,-0.16,0.90,1.34,0.02,-0.19,0.41,1.29,1.60,0.06,0.52,-0.32
"ex1295",0.64,1.36,1.07,-0.00,1.56,3.65,1.48,2.34,1.34,0.82,1.84,2.40,3.14,3.39,2.94,2.70,1.38,0.77,1.44,0.90,0.04,1.74,-0.28,0.25,-0.97,-1.30,-0.04,-1.63,-0.87,-0.83,-1.30,-0.19,1.70,-1.19,-0.46
"ex1296",-0.63,-0.15,1.87,1.73,2.09,3.95,5.62,5.10,5.56,3.70,2.80,2.47,2.53,1.32,0.23,1.53,-0.47,0.55,1.50,-1.86,-1.33,0.29,1.11,0.81,1.52,0.75,0.23,2.71,0.99,0.56,-0.33,1.03,0.38,0.34,0.81
"ex1297",-1.28,-0.34,-0.82,0.39,2.09,0.53,1.71,2.65,3.96,4.18,5.12,3.98,2.72,1.96,-0.62,3.61,-0.17,-0.97,-0.08,-0.87,-0.17,-0.02,0.78,-1.45,1.53,1.17,0.13,-1.49,-1.10,-0.66,0.13,1.12,0.21,1.12,-1.10
"ex1298",-0.79,0.28,1.12,2.67,1.38,1.09,4.12,2.26,2.29,1.46,0.93,1.94,3.09,1.44,2.23,-0.50,0.24,0.59,1.12,1.51,0.35,-1.62,0.07,0.28,1.38,-0.65,-0.24,-1.42,-0.84,0.01,0.96,0.51,1.89,-1.52,0.18
"ex1299",0.97,0.84,0.35,-0.12,1.64,0.85,1.31,2.13,1.87,0.12,0.61,1.59,3.52,3.61,4.59,3.45,2.47,2.82,2.85,2.41,0.97,0.23,-0.25,0.62,-0.63,-0.35,-0.40,-0.86,-1.98,-0.74,-1.08,0.12,-0.82,-0.66,-0.05
"ex1300",-0.55,2.29,-0.40,1.96,3.95,4.19,4.73,5.68,2.72,3.99,2.87,0.62,-0.57,2.57,0.14,2.09,-0.82,1.65,0.67,1.20,-0.91,-0.72,-0.01,1.18,-0.05,1.43,0.04,-1.46,-0.35,0.35,1.22,1.88,-0.79,-0.50,-1.40
"ex1301",-0.71,0.81,1.99,2.41,3.39,2.73,5.37,5.61,1.97,0.99,3.86,1.95,1.88,3.05,1.45,-0.26,-0.63,0.42,-0.45,-0.10,-0.56,0.77,1.38,-0.14,-2.13,-0.05,-0.79,1.10,-1.93,0.29,-1.34,-1.77,-1.00,1.01,0.01
"ex1302",-0.68,1.15,0.24,1.03,0.44,2.98,1.82,2.48,2.17,0.46,4.09,2.01,4.09,4.98,3.41,2.65,2.97,1.57,1.81,0.52,2.10,-0.16,-0.18,-0.15,-0.04,0.89,-0.15,-1.23,0.06,0.92,1.06,-0.17,0.09,-2.10,-0.76
"ex1303",0.69,0.87,2.58,0.90,1.56,2.83,3.42,4.54,4.68,4.09,2.56,1.16,1.23,1.42,1.63,0.67,-0.48,-1.01,-1.26,0.83,-0.10,-0.18,-0.14,-1.25,-0.65,-0.74,0.93,-0.00,-1.30,0.48,-0.61,-0.30,0.38,-0.82,1.06
"ex1304",-0.22,0.58,0.62,0.48,0.34,1.93,2.87,3.20,3.56,4.19,5.24,4.60,1.42,4.26,1.32,1.42,-0.34,0.39,0.66,1.51,0.96,-0.06,-0.29,-0.42,-0.21,0.62,1.56,0.01,-1.22,-0.69,0.34,-0.01,-0.20,0.10,-0.40
"ex1305",0.89,0.45,1.94,1.80,2.24,5.63,3.01,4.11,2.62,1.69,4.18,2.22,1.61,0.38,0.75,2.44,1.55,1.35,0.87,2.20,2.43,-1.03,-0.14,-2.04,-1.19,-1.50,-3.06,1.28,1.03,1.22,-1.41,-0.09,0.36,-0.49,0.08
"ex1306",0.15,1.03,2.40,2.72,2.35,2.48,2.88,4.69,3.99,3.12,3.88,5.03,2.08,1.01,1.42,1.30,-0.12,0.79,0.25,0.42,1.49,-1.28,0.50,-0.77,-0.60,0.33,1.26,-1.10,0.37,1.71,0.20,0.28,0.08,-0.54,-1.39
"ex1307",0.65,-0.12,-0.75,-0.91,0.34,0.48,2.47,3.70,5.56,6.39,5.80,5.70,4.98,1.33,2.41,2.14,0.94,0.53,-1.22,-0.45,-0.33,-0.99,0.21,-0.61,0.44,-0.61,0.35,0.29,-0.17,-0.77,-0.52,-0.31,0.62,1.21,0.80
"ex1308",0.75,0.01,-0.35,-0.44,-1.25,0.22,1.51,0.67,4.64,4.55,6.58,6.41,1.90,2.81,0.49,2.32,1.53,-0.06,1.41,0.09,0.77,-0.42,0.92,0.53,-0.19,1.75,-0.95,0.90,0.33,-0.71,-0.31,0.31,0.30,-0.98,-0.65
"ex1309",0.28,1.04,3.25,1.54,1.67,2.91,4.71,3.98,3.45,1.72,2.21,3.22,0.54,2.90,2.61,0.84,0.87,1.66,0.73,1.23,0.86,0.41,0.28,-1.35,0.89,-0.45,0.13,-0.48,-0.21,0.23,-2.81,0.93,-1.90,0.84,2.02
"ex1310",-0.43,-1.43,0.67,-0.97,-1.12,1.15,3.20,3.43,4.48,3.87,5.70,3.66,3.41,2.45,2.00,2.59,-0.61,-1.22,1.81,-0.73,-1.92,1.28,-0.62,0.62,0.00,-1.45,0.00,0.43,-0.23,2.01,1.53,-1.00,-0.36,1.03,0.65
"ex1311",-1.15,0.27,0.42,0.32,1.47,0.58,1.42,3.65,2.93,3.59,5.11,4.56,2.92,4.24,2.02,2.85,-0.53,0.44,0.70,0.48,-1.19,-0.84,-0.74,-0.70,-1.14,-0.57,-0.37,-0.96,0.39,-0.81,-0.29,-0.12,-2.24,-0.18,-0.11
"ex1312",0.24,1.10,2.16,2.46,3.57,4.34,4.08,3.63,2.34,1.81,2.11,-0.22,0.92,-1.56,0.95,1.43,1.28,1.74,0.98,1.18,-0.34,0.08,-0.20,2.13,-0.63,0.21,-0.37,-0.01,-1.58,-1.68,-0.71,-2.78,-0.65,-0.67,-0.43
"ex1313",0.01,-1.03,-1.04,0.37,-0.64,-0.72,1.62,-1.06,-0.14,2.35,1.70,4.77,4.13,4.06,5.51,4.10,2.51,2.78,0.70,-0.60,0.22,-1.46,2.34,-0.25,0.74,-0.98,-0.39,-0.78,-1.03,1.65,0.48,-0.61,-0.19,-1.68,-0.14
"ex1314",1.03,0.58,1.46,4.29,5.54,4.39,5.27,6.03,4.05,2.86,1.97,1.14,-0.28,0.60,0.70,0.13,-2.13,-1.25,-0.65,1.12,-0.26,-0.22,-0.14,-0.78,-0.04,0.62,0.95,-0.93,-0.68,0.45,-0.76,-0.08,0.02,1.05,0.36
"ex1315",-0.43,0.92,0.87,2.95,2.59,2.40,6.71,5.98,3.93,3.54,4.05,2.40,0.09,1.32,-0.17,1.14,0.48,0.54,-1.63,0.49,1.08,0.45,-1.08,0.03,-0.41,-0.55,-0.30,0.69,1.80,0.64,-2.02,2.40,-1.11,-0.90,1.23
"ex1316",-0.82,0.44,-0.03,0.49,3.31,2.47,2.06,3.56,4.30,3.40,3.89,3.81,0.92,1.49,-0.14,-0.37,-0.83,0.53,-0.32,-2.15,0.04,-0.01,-1.03,0.42,0.87,0.82,-0.02,-2.37,-1.13,0.90,0.44,0.73,1.18,-1.40,1.54
"ex1317",-0.08,-1.15,1.44,1.77,1.05,1.85,1.71,1.82,1.88,2.76,2.74,1.62,1.60,2.31,3.61,3.03,3.28,2.20,1.60,1.62,0.82,1.19,0.05,-0.93,0.68,0.54,0.60,0.49,-1.60,1.40,-0.54,-0.19,-2.14,-2.13,-0.32
"ex1318",-0.07,-1.33,-1.59,0.10,-0.32,1.50,0.32,-0.91,0.60,3.22,2.84,3.75,4.74,3.79,5.41,4.96,3.34,2.81,2.22,0.02,0.75,1.46,1.12,-0.28,0.35,-0.22,-0.55,-1.23,-0.86,0.11,-1.52,-0.26,0.19,0.51,-1.54
"ex1319",1.20,-1.08,2.43,2.20,2.44,1.72,0.13,1.34,0.30,1.01,2.25,1.88,2.05,2.98,0.81,3.50,1.77,1.31,2.70,0.99,-0.38,-0.17,-0.21,-1.87,-1.19,0.05,1.84,1.48,-0.94,0.32,-1.65,1.03,0.96,0.60,1.70
"ex1320",-2.00,1.04,-1.87,-0.71,1.19,0.60,2.41,1.86,1.93,3.01,2.63,2.38,3.75,3.95,3.34,4.58,3.68,0.73,0.56,-0.03,0.70,-0.30,-0.45,0.48,-2.50,-2.25,-0.22,0.77,-0.94,-0.23,-0.06,0.02,-1.15,-1.02,-0.60
"ex1321",0.18,1.01,4.49,1.89,1.51,2.60,3.94,3.76,1.90,4.30,3.27,3.97,2.11,1.49,4.64,1.13,3.04,2.33,1.34,-0.76,-0.08,-0.54,-0.09,-1.23,0.29,-0.53,1.07,0.73,0.61,-0.97,-0.39,-0.32,-1.34,1.22,-1.53
"ex1322",0.45,-2.49,2.74,-0.27,-0.23,1.48,-0.03,-0.23,0.21,1.73,1.51,1.97,3.85,5.16,4.78,5.22,3.15,1.87,2.26,3.18,-0.07,-0.10,0.05,-0.18,-0.11,-1.08,-1.02,1.16,1.17,0.90,-0.16,-0.58,-0.70,2.37,-1.11
"ex1323",-0.27,-0.99,1.31,0.32,3.44,3.11,5.94,4.92,4.30,3.42,4.48,4.47,2.03,1.01,1.62,1.13,0.27,-1.14,-0.11,0.01,1.48,-1.72,-0.01,-0.75,-0.35,-0.17,-0.81,-0.75,0.46,-0.27,0.40,-0.40,1.55,1.01,-0.35
"ex1324",0.14,0.02,-0.51,-0.23,0.03,1.60,3.70,3.63,2.53,3.95,5.28,3.53,3.42,2.09,1.62,0.29,0.96,0.07,-0.09,0.60,-0.83,-1.56,0.24,-0.08,1.35,1.12,0.85,-0.83,-1.23,-0.23,0.86,-0.53,0.58,-0.87,-0.29
"ex1325",1.90,0.28,-1.00,0.53,-0.94,1.04,-1.23,-0.46,-1.03,0.80,2.57,3.61,3.59,3.92,3.72,4.96,3.99,2.78,2.51,1.88,-0.67,-0.72,-0.15,-0.37,-0.52,0.02,0.71,-0.08,-0.33,-1.42,0.53,0.47,-1.94,-1.52,0.37
"ex1326",-2.55,-1.31,-0.94,0.04,-0.68,1.06,0.39,-0.90,0.12,0.58,2.94,4.24,2.43,4.35,5.47,4.49,2.33,3.92,3.18,1.50,-0.24,0.65,0.58,2.43,0.12,-1.01,0.04,1.09,0.03,-0.17,0.40,1.39,-0.56,0.17,0.94
"ex1327",0.16,0.81,0.33,1.30,0.65,1.25,-0.10,2.29,1.49,1.85,2.78,2.62,1.28,4.59,3.96,3.87,2.28,0.83,1.68,-0.23,0.10,0.81,-0.95,2.39,-1.48,0.50,-1.66,-1.05,-0.08,-0.56,-0.34,-0.60,-0.30,0.11,0.45
"ex1328",-0.22,-0.13,0.69,-1.13,0.34,1.10,-0.63,-1.32,-0.30,-0.22,1.69,2.96,2.45,4.78,4.43,3.75,2.31,1.98,2.57,0.73,0.17,-1.17,1.72,1.29,0.44,-0.78,-0.89,0.38,-0.11,-1.20,-1.05,0.42,-0.02,-1.13,-0.94
"ex1329",1.42,0.30,-0.69,-1.59,-0.38,0.56,2.73,2.67,4.94,5.77,5.43,6.06,1.40,2.50,1.39,0.76,0.89,0.70,0.32,-1.68,-0.31,-0.38,-0.23,0.10,1.10,-1.24,-0.54,0.78,0.74,0.71,0.13,-0.35,-0.54,-1.00,-1.31
"ex1330",-1.16,0.82,1.15,1.92,2.43,2.11,3.21,3.89,3.45,4.00,0.71,0.52,0.37,-0.44,2.51,2.09,0.81,0.84,0.28,-1.90,-1.36,-0.76,-1.07,-0.86,0.24,1.40,-0.45,-0.21,1.35,-1.65,-0.29,0.19,0.19,-0.08,1.66
"ex1331",-0.86,-0.28,-1.19,0.74,2.23,1.87,1.03,2.45,-0.34,2.66,3.96,2.70,3.13,3.65,4.52,5.23,3.67,3.01,1.62,1.29,0.53,0.47,0.18,0.49,-0.44,-0.85,-0.63,-1.03,-1.13,-0.59,-1.57,1.26,-0.91,-1.61,-0.56
"ex1332",-0.54,-1.06,0.48,2.04,2.23,3.20,3.99,3.67,2.52,2.86,3.71,2.88,1.25,1.69,3.17,-0.09,-1.15,-1.07,-1.62,0.02,-1.03,1.15,0.69,-0.42,0.04,-1.13,1.50,-0.12,-0.46,0.13,-0.44,0.28,-0.37,-1.16,-0.34
"ex1333",0.75,0.35,2.58,0.89,0.24,1.16,2.79,4.26,3.47,4.69,5.38,4.83,4.05,2.35,2.09,1.40,0.16,-0.83,-0.06,0.31,0.45,-2.35,0.44,0.73,-0.17,-1.26,-0.98,0.39,-0.51,-1.77,-0.12,1.40,-0.09,-2.34,-0.71
"ex1334",0.75,1.38,0.72,1.04,1.70,3.13,3.60,4.06,3.39,4.60,5.04,3.42,2.22,1.89,1.90,0.78,-0.67,0.45,0.33,-0.22,0.29,-1.47,0.84,0.33,-0.29,-1.21,-0.32,1.06,-0.05,-1.64,0.34,2.53,-1.42,1.79,-0.95
"ex1335",-0.90,1.17,3.11,1.64,2.79,6.13,5.18,5.77,2.88,2.38,1.14,2.12,0.90,0.00,0.71,0.93,-0.28,-0.27,0.62,1.21,0.13,-0.16,-0.96,-1.05,-0.45,-1.61,-0.03,0.47,1.02,-1.72,1.61,1.56,-0.14,0.92,-0.15
"ex1336",2.21,1.95,1.01,1.39,2.54,2.91,3.97,2.88,5.30,1.88,1.12,0.91,1.06,1.55,1.43,0.06,-0.75,-1.31,0.90,1.54,1.06,-0.38,0.46,0.24,0.79,1.25,-0.66,1.36,-0.23,-0.11,0.10,0.28,-0.46,0.13,0.12
"ex1337",1.79,1.89,0.26,-0.66,2.12,4.66,3.41,3.66,0.69,2.83,3.26,0.10,2.46,2.05,4.69,2.04,2.01,-0.08,1.02,0.41,0.17,-0.56,1.12,0.24,-0.71,0.57,1.39,-2.56,1.72,-0.11,-0.58,-0.49,-0.88,0.45,0.65
"ex1338",0.82,0.14,0.88,0.27,1.66,-0.23,-1.31,1.62,1.45,1.67,3.99,3.59,1.02,3.88,5.62,4.94,2.64,2.60,0.86,0.53,0.47,-0.94,-1.63,-0.40,0.85,0.35,-0.54,-0.08,-0.77,0.09,0.67,-0.32,1.04,0.09,2.12
"ex1339",0.05,-0.47,1.66,-0.38,0.74,0.14,0.11,-0.07,1.02,2.83,4.67,4.13,3.56,3.59,3.78,3.52,2.34,2.64,2.52,0.96,0.85,-0.00,0.78,0.43,-0.43,0.24,-0.89,-1.08,-0.29,2.32,0.23,0.27,-0.29,0.03,-0.74
"ex1340",-0.30,0.75,0.93,-0.58,-0.59,0.39,2.53,3.86,1.91,3.70,4.19,3.55,2.49,1.66,2.51,1.69,1.46,-0.52,0.08,0.62,-0.95,-0.54,0.66,1.84,1.29,-2.07,-0.82,-0.50,-2.29,-0.57,-0.55,0.27,-0.00,-2.30,-1.08
"ex1341",-1.92,2.08,1.37,3.29,2.93,4.89,3.51,4.60,4.42,4.28,1.95,0.03,1.01,1.44,3.72,2.20,0.52,1.16,1.25,0.13,-1.51,2.24,3.07,-1.53,0.27,-0.30,1.65,0.60,-0.55,-0.60,-0.59,2.01,-0.74,-0.20,-1.21
"ex1342",-1.18,0.35,1.28,-0.47,0.81,1.22,3.37,3.82,4.42,3.42,4.73,4.55,3.68,2.41,0.94,1.28,-0.35,0.66,0.51,0.14,0.19,-1.10,0.24,1.16,0.88,0.27,0.16,0.04,0.59,-0.48,-0.21,-0.26,-1.70,1.25,0.63
"ex1343",-0.57,1.07,1.13,2.44,3.07,5.28,4.62,6.24,2.12,3.55,1.21,2.21,-0.67,-2.42,0.19,-1.19,0.13,-1.24,0.14,1.26,0.72,-1.89,0.19,-2.11,0.61,-0.35,0.45,1.30,-1.18,-0.71,1.26,0.14,-0.53,-2.52,0.21
"ex1344",-0.11,0.10,0.23,0.94,2.71,-0.59,0.68,2.95,1.15,0.66,1.42,2.73,5.43,5.47,6.10,4.58,4.68,1.81,1.84,2.03,-0.91,-0.95,-0.42,-0.78,-0.30,-0.73,0.49,1.14,-2.00,-0.78,-0.12,-3.12,-1.38,-0.50,-0.22
"ex1345",0.24,-0.73,2.27,-0.68,1.75,1.58,0.05,0.86,1.23,1.08,2.67,2.75,5.68,6.08,4.91,2.40,3.75,2.60,0.45,0.57,0.78,0.34,-0.27,0.44,1.67,0.70,-0.01,0.46,-0.06,-0.05,-2.13,0.89,-0.18,0.68,0.54
"ex1346",0.76,2.32,1.18,0.16,2.45,4.26,1.21,3.05,3.75,4.43,6.95,2.95,3.33,3.36,2.71,0.93,0.50,-0.37,-1.80,-0.72,-0.89,-0.57,-0.06,-0.78,-0.05,-0.35,0.02,-0.78,-0.93,1.50,0.48,-0.84,1.32,1.71,0.29
"ex1347",0.38,0.29,0.42,-1.47,1.07,3.78,2.41,1.16,4.08,3.89,5.11,4.69,1.14,1.13,2.17,-0.06,-0.01,-0.50,1.28,-0.31,-0.39,1.33,-1.64,-0.16,1.87,-1.14,-1.23,-0.50,-2.53,0.34,-1.23,1.49,0.21,-0.23,-0.60
"ex1348",-0.57,0.84,3.85,3.73,3.21,4.88,6.17,6.71,4.92,3.22,2.74,0.17,-0.16,0.49,-0.20,0.41,0.21,-0.64,0.82,-0.64,0.18,-0.98,-0.96,0.19,1.01,-0.05,-0.13,0.92,1.45,-1.06,-0.73,0.46,-0.33,-0.04,-0.07
"ex1349",-0.28,0.75,-1.05,-0.56,-0.03,1.03,1.06,1.20,3.03,3.35,3.52,5.43,3.46,5.23,5.08,3.03,3.07,2.69,0.87,-0.22,1.39,-0.11,0.60,-0.29,0.81,0.59,0.34,0.48,-0.63,0.72,-0.21,-0.88,0.62,-0.33,0.56
"ex1350",1.20,-1.03,1.34,0.05,0.84,1.12,2.81,1.09,3.02,-0.34,2.29,2.31,3.35,1.36,4.40,2.96,1.07,0.85,0.72,1.77,2.14,0.42,-1.37,0.95,1.90,-0.11,-0.55,0.74,-0.35,0.36,1.46,-0.26,0.76,1.10,0.41
"ex1351",1.21,0.54,-0.38,-0.14,-0.50,-0.43,0.05,1.06,1.59,3.06,4.74,3.10,5.81,3.22,5.77,3.84,3.70,3.19,0.08,2.00,-1.65,0.63,-1.56,0.32,0.30,1.14,-0.01,0.45,0.25,0.61,0.93,-0.43,0.60,-1.76,1.44
"ex1352",-1.76,1.29,1.41,0.68,1.37,1.09,1.58,1.20,2.51,2.25,4.72,5.62,4.46,4.89,3.34,2.05,4.32,1.21,0.72,1.42,0.28,-0.91,-0.53,0.63,2.37,1.45,-1.48,-0.43,0.84,0.48,-0.91,2.01,0.66,0.77,-0.59
"ex1353",-0.76,0.73,2.72,2.72,3.35,2.65,4.01,3.10,0.39,2.35,0.67,3.03,2.42,2.79,1.54,2.20,3.46,4.69,2.19,0.54,-0.61,-0.19,-2.00,0.40,0.60,-0.34,-0.55,0.10,-2.24,0.14,0.64,1.61,-0.96,-0.81,-0.91
"ex1354",0.41,0.45,1.49,2.90,4.81,3.80,4.21,5.88,3.22,3.60,3.20,1.21,2.69,0.44,0.99,-0.15,0.12,-0.49,0.21,1.37,-1.74,-1.83,-1.03,0.36,0.09,0.42,1.43,-0.42,0.40,-0.23,1.13,-1.49,-1.36,2.06,0.64
"ex1355",-0.36,0.94,-0.29,0.18,1.06,-0.67,0.06,0.71,2.04,6.16,3.26,3.98,4.84,2.23,1.53,1.40,-0.53,0.99,-0.32,-0.31,1.80,0.93,0.83,0.72,-0.45,0.86,0.45,-0.60,-1.66,0.87,1.90,0.97,-0.51,-0.15,2.63
"ex1356",1.98,0.73,0.76,1.43,2.68,3.17,4.89,3.47,5.18,3.81,1.71,0.08,1.58,2.85,-0.54,0.22,1.46,0.76,-0.77,-0.11,-0.98,0.99,-1.12,1.10,0.32,1.70,2.20,0.12,-0.48,-0.96,-0.85,0.58,0.48,0.44,0.32
"ex1357",-2.27,-1.03,0.79,0.33,3.32,3.24,2.69,3.10,0.55,2.30,2.56,1.22,1.40,3.82,2.51,1.77,1.72,1.56,-0.16,-0.89,-0.73,-0.81,0.37,-0.29,-0.12,-2.81,-0.74,-2.35,0.42,2.09,0.24,-0.28,1.14,-0.20,2.50
"ex1358",-0.23,0.16,0.93,-1.73,0.19,1.26,-0.08,-1.04,1.46,1.55,3.34,3.91,6.17,2.42,4.43,4.94,3.90,2.94,1.29,1.16,-2.05,1.16,0.68,-1.55,0.06,2.00,-0.66,-1.67,-2.00,1.48,0.21,0.72,-0.34,1.18,0.20
"ex1359",0.06,1.62,2.97,2.05,5.30,5.98,4.15,5.96,5.33,4.64,3.88,0.36,2.05,1.20,1.24,-0.05,0.32,0.67,0.87,-1.33,0.77,-0.80,0.83,-0.02,0.98,-0.40,-0.42,-0.35,-1.31,1.09,0.97,1.98,2.95,-0.35,0.82
"ex1360",-0.12,-1.12,0.46,1.07,3.31,-0.26,-0.70,-0.99,-0.06,1.09,2.51,3.67,4.46,4.72,6.59,3.39,3.47,2.89,2.81,2.88,0.51,-0.05,-0.21,0.26,0.36,-0.96,-0.07,0.23,0.64,0.38,0.05,-0.89,0.74,1.01,-0.99
"ex1361",0.69,1.30,0.71,3.47,3.53,4.78,4.64,5.72,1.70,3.32,0.42,1.64,1.20,1.14,-0.89,-0.82,0.22,-2.14,-0.12,0.51,0.79,-0.83,-0.51,1.69,0.74,-0.97,-1.52,0.95,0.68,1.31,1.50,-0.53,-1.53,-0.33,1.16
"ex1362",0.10,1.31,1.63,2.11,5.96,5.37,5.89,4.46,4.19,3.09,2.68,2.68,0.75,0.24,0.71,-0.01,1.80,1.56,-0.12,-0.10,-0.91,-0.27,-0.50,1.69,-0.32,0.28,2.24,-2.64,-1.91,0.31,-0.06,0.01,-0.73,-0.34,0.65
"ex1363",1.50,1.04,-0.47,1.65,0.52,3.92,5.04,3.63,3.87,4.67,4.74,2.41,1.58,2.37,-0.02,0.34,-0.47,1.76,0.87,-0.95,0.76,0.40,1.55,1.43,2.49,-1.12,-2.06,-1.03,-1.44,0.28,-1.83,0.74,0.19,0.83,-0.08
"ex1364",1.40,0.92,0.46,-1.46,-0.74,1.53,-1.27,-0.49,-1.00,1.96,0.64,2.75,4.77,4.27,6.04,4.10,3.25,1.56,2.42,0.06,-0.65,-0.98,-0.69,-1.65,-2.00,-0.28,0.38,0.11,1.46,1.23,0.62,-1.11,0.42,-0.82,-0.34
"ex1365",0.13,-0.63,2.57,3.05,2.48,4.46,5.07,5.09,3.37,2.16,2.62,1.67,1.44,0.67,0.83,-1.61,-0.31,1.32,1.01,2.02,0.02,0.06,-1.63,-0.82,0.16,0.27,-0.68,0.52,-0.21,1.28,-1.66,1.35,-1.58,0.37,-0.24
"ex1366",0.10,0.94,0.61,-0.24,0.44,1.86,0.42,0.88,1.89,3.23,4.62,3.58,2.97,3.18,3.63,1.82,0.40,1.19,-0.37,0.70,-0.33,0.01,0.20,0.42,0.32,2.30,0.41,-0.60,0.94,0.27,-0.52,0.75,-0.24,-0.13,0.35
"ex1367",-0.75,1.97,1.86,-0.21,-0.18,1.90,2.39,3.59,3.54,6.06,3.91,5.04,3.38,2.24,0.89,1.04,1.02,-0.48,0.35,-1.11,0.95,0.32,-0.12,0.36,0.61,-1.91,-1.31,0.96,1.39,-0.03,0.09,0.51,1.29,1.45,-2.20
"ex1368",1.37,1.09,0.32,-0.30,-0.16,0.88,2.59,0.78,4.69,4.47,6.12,3.67,4.11,2.96,2.26,2.17,2.48,-0.05,-0.35,1.39,0.00,0.43,-1.62,0.77,1.07,0.40,-0.07,-0.11,-0.42,-0.28,0.72,0.77,-1.14,1.19,0.19
"ex1369",0.23,0.29,2.48,2.90,2.96,4.75,2.52,4.97,1.92,2.98,2.24,0.94,1.55,1.15,-0.14,1.54,0.20,-0.14,-0.06,0.52,0.17,-2.61,-0.57,-0.10,0.87,-0.55,-1.39,-0.56,-0.30,-0.65,0.20,1.62,-0.63,-1.67,2.35
"ex1370",-2.71,0.78,3.59,2.42,4.27,5.07,5.63,4.29,4.03,2.13,2.68,-0.02,0.22,0.34,0.07,-0.11,-0.24,-1.17,0.39,-0.36,-1.76,0.99,0.46,2.30,1.29,0.73,0.39,1.27,-0.96,0.62,-0.97,0.07,0.49,-0.34,0.03
"ex1371",-1.06,-0.32,1.41,1.47,5.08,5.06,3.21,3.14,5.24,1.62,0.91,1.18,1.02,0.68,0.91,1.25,-1.15,-0.22,0.59,0.39,-0.24,-0.48,1.28,0.49,-1.50,-1.21,0.79,0.14,-1.05,0.37,0.40,0.53,1.48,-0.95,-0.62
"ex1372",-1.41,0.70,0.62,-0.67,0.05,0.96,1.99,3.04,5.26,4.03,4.85,4.59,2.95,2.15,-0.05,1.10,0.17,-3.63,0.35,0.93,0.43,-0.02,0.30,0.98,-0.47,-0.76,0.69,-0.38,-2.33,-0.38,1.19,0.89,-2.11,-0.78,1.71
"ex1373",-1.00,0.30,0.26,1.31,-0.08,1.02,2.43,3.74,2.47,2.84,4.68,3.17,3.38,5.13,2.28,2.67,0.35,1.68,0.31,-0.86,0.64,-0.86,0.64,-0.01,0.21,-0.22,0.54,-0.71,1.83,2.44,0.02,0.22,-0.88,0.27,1.26
"ex1374",0.29,-0.86,0.11,-0.58,2.17,0.80,4.20,2.83,2.00,1.60,1.88,2.36,1.36,2.61,5.44,1.70,1.58,3.61,0.39,2.37,-0.76,0.72,-1.64,-0.79,1.44,0.88,-0.84,1.18,-0.26,0.18,0.02,-0.86,2.19,0.19,-0.08
"ex1375",0.05,1.59,-1.89,-2.57,-0.04,0.73,1.50,3.44,4.45,3.64,2.74,4.10,4.52,0.41,1.93,1.21,1.82,0.75,-1.47,-0.67,0.17,0.35,-0.85,0.22,-1.12,0.48,-1.03,-0.14,1.17,1.66,-1.75,-0.83,0.56,-0.97,1.36
"ex1376",-1.07,-0.49,-1.35,-0.66,2.43,2.32,1.52,0.15,0.34,0.66,1.45,1.41,2.66,2.19,1.67,3.38,2.78,1.81,2.71,1.26,0.22,1.02,-1.55,0.61,0.45,0.19,-1.05,-0.75,0.23,0.53,0.55,-0.26,-0.57,0.76,0.08
"ex1377",0.34,-0.49,-0.97,0.92,-0.23,-0.96,-0.10,-0.40,1.71,0.54,2.58,2.70,3.29,6.27,4.90,4.74,3.51,2.45,0.66,0.22,-0.33,-0.34,0.01,0.18,-1.61,-0.32,-1.24,-1.01,-1.37,0.98,-0.98,-0.04,-0.18,0.16,-0.76
"ex1378",-1.05,0.86,1.11,1.07,0.34,1.77,3.81,2.25,1.87,1.75,2.13,2.96,1.20,1.61,3.25,2.77,3.24,0.96,1.66,0.84,0.14,-0.40,-0.01,-1.41,0.04,-0.82,-0.33,-0.85,-0.13,-0.23,-1.20,0.43,-0.54,0.65,-0.15
"ex1379",-0.59,-0.08,0.08,0.51,0.38,1.00,0.90,0.05,1.51,1.69,3.50,4.84,4.74,3.19,4.56,2.95,2.48,1.36,2.41,0.67,1.94,-0.78,0.25,-0.45,-1.10,-0.66,-1.24,0.25,0.93,-2.68,0.50,-1.37,-0.27,0.71,-0.07
"ex1380",1.45,0.08,1.65,2.11,4.28,4.26,5.47,5.42,2.68,2.52,1.34,1.67,0.70,1.89,-1.54,-0.01,-1.42,0.82,1.45,-0.69,0.52,0.43,1.04,-0.16,-0.56,-0.24,-1.09,-1.82,-0.50,-1.36,-0.87,-1.01,1.84,-0.42,-1.00
"ex1381",-0.02,-1.31,0.99,0.83,1.78,3.75,1.43,1.54,3.76,1.61,1.92,1.59,2.68,2.75,3.45,3.05,3.70,0.70,1.40,0.30,-0.19,0.02,-2.70,-0.25,-0.04,0.85,-1.20,0.31,-0.69,-0.72,-0.81,0.69,0.45,-0.31,1.41
"ex1382",-0.07,-0.46,1.88,1.12,2.36,4.31,4.36,4.27,5.52,4.23,3.64,5.28,0.99,0.80,1.88,0.28,0.93,-0.25,1.71,-0.07,-0.64,-0.30,-1.05,0.84,0.21,-0.64,-1.40,0.81,1.07,-0.69,-1.19,-0.52,0.52,0.71,-0.80
"ex1383",-0.16,1.97,0.56,3.22,3.34,2.52,5.49,1.99,3.93,2.64,2.48,0.60,2.83,0.35,2.89,2.25,2.04,0.58,2.61,3.06,1.14,-0.24,0.53,-0.36,-0.28,0.16,-0.25,-1.46,-0.56,-1.24,1.64,0.53,-0.80,-1.89,-0.47
"ex1384",-0.39,1.94,2.25,1.80,4.00,4.86,6.02,6.40,2.16,3.72,3.47,0.16,1.42,0.15,-0.92,1.55,1.17,0.46,-0.31,-1.91,-2.11,0.28,0.83,-0.24,0.30,0.32,-1.48,0.54,2.93,1.13,0.37,-0.89,-0.82,1.32,0.11
"ex1385",-0.54,0.32,-0.03,-2.31,-0.50,1.67,0.26,0.55,-0.08,3.68,3.26,3.04,3.83,5.29,5.64,4.66,3.04,0.72,0.97,-0.20,-0.15,-0.46,-2.31,-0.92,-0.76,0.11,-0.24,-0.93,0.12,-0.35,0.42,2.28,0.55,0.62,0.77
"ex1386",0.15,1.08,0.01,0.27,0.60,-1.23,1.32,0.80,1.31,1.74,2.17,2.69,4.11,5.74,4.92,3.52,3.89,1.45,1.92,1.32,-0.99,-0.28,-0.03,-1.56,-1.15,-0.01,-1.33,0.20,0.66,0.87,2.37,1.49,-0.28,0.66,-0.22
"ex1387",-1.22,0.80,0.28,0.34,2.92,1.01,0.38,-0.49,1.14,2.54,3.17,3.07,3.46,4.40,3.11,3.57,5.19,1.10,0.38,0.06,-1.24,-0.61,-0.12,0.29,-0.54,0.16,0.32,1.27,-0.97,-0.55,0.00,1.18,-0.00,-0.65,0.41
"ex1388",-0.19,0.20,-0.32,-0.88,1.40,1.72,1.95,3.06,3.46,4.61,6.65,4.65,3.85,1.44,2.54,-0.04,0.20,-2.07,1.22,0.67,-0.98,-1.68,-1.59,0.13,-0.79,-0.32,-1.16,-1.08,-1.43,-1.11,0.55,-1.58,-0.75,0.52,-0.71
"ex1389",0.53,-1.09,0.64,0.54,-0.71,1.27,-1.12,0.98,-0.99,1.20,1.54,2.91,4.63,4.86,5.73,7.20,2.97,1.25,1.65,-0.57,0.16,-0.69,0.36,0.17,0.60,0.40,-0.02,-0.43,0.49,-1.25,1.19,-0.69,-0.21,0.06,-0.18
"ex1390",-0.10,-0.68,-0.73,-1.31,0.10,-2.12,2.34,3.27,4.94,6.56,5.18,5.24,2.44,3.57,2.65,1.65,-0.42,0.04,-0.88,-0.23,0.44,0.23,-0.39,-2.43,-0.68,0.40,-2.63,-0.16,0.95,0.09,0.13,1.08,0.35,-2.07,0.02
"ex1391",0.01,0.40,-0.38,1.50,1.50,1.80,2.57,4.25,4.16,4.93,5.40,3.52,1.36,2.35,2.23,1.14,0.26,-0.51,1.10,0.44,-1.20,0.25,-1.09,-0.06,-0.40,-0.18,-0.75,-1.44,1.68,-0.51,-0.32,1.33,0.46,1.73,0.13
"ex1392",-0.66,1.67,1.90,1.55,1.63,2.79,3.06,3.29,2.38,4.03,2.70,-0.03,0.19,4.04,2.87,2.15,2.62,1.91,1.79,2.40,-0.39,-1.51,-1.16,-0.62,0.58,-3.53,-0.47,-0.84,0.15,0.47,-0.33,0.83,-0.36,-1.02,0.33
"ex1393",-0.08,1.01,0.76,-1.96,-1.16,-0.34,0.40,-0.62,-1.50,-0.20,1.39,5.37,4.12,6.23,5.48,5.03,3.66,2.07,2.51,0.88,0.07,-0.21,-0.39,0.49,0.09,-0.18,0.63,0.21,1.72,-1.50,0.16,-1.68,0.71,1.15,-0.37
"ex1394",-0.43,-1.29,0.82,2.07,3.05,3.02,4.21,3.12,2.73,0.47,1.95,1.15,0.56,0.60,2.18,2.67,-0.30,0.46,1.94,0.61,0.82,1.55,1.26,-0.63,-1.10,0.53,-0.62,-0.78,-0.19,0.24,1.82,1.05,0.91,-1.12,0.90
"ex1395",1.42,0.34,1.41,3.06,2.26,5.98,5.72,4.28,3.79,5.22,1.33,1.72,2.29,2.48,1.15,0.32,2.60,1.13,0.76,0.92,1.45,1.23,-0.29,0.90,-1.12,0.11,-0.05,0.18,0.63,0.28,1.57,0.12,-0.61,1.06,1.28
"ex1396",-1.73,0.88,0.63,1.05,1.43,3.03,3.71,2.07,1.38,3.65,3.49,2.19,3.81,3.68,4.76,0.83,1.86,0.35,0.88,-0.14,-0.32,-0.06,0.99,-0.25,1.15,-1.44,0.08,0.58,-1.58,-1.87,1.89,1.36,-2.14,1.47,1.73
"ex1397",-0.14,-0.41,2.34,1.15,1.01,1.97,2.71,3.58,4.85,4.58,4.45,2.29,2.55,1.70,0.43,1.49,0.22,-1.05,-0.51,1.32,0.40,0.52,1.57,-1.09,-0.57,-0.36,-0.40,-0.33,-0.72,0.18,0.70,-0.28,0.90,-1.18,1.14
"ex1398",-0.20,-0.27,3.55,3.35,3.34,5.60,5.39,6.12,5.11,4.89,2.52,0.27,2.85,0.25,-0.20,0.16,-1.46,-1.26,-2.02,-0.22,-1.11,-1.25,0.37,1.39,-1.44,0.90,-0.95,0.65,-0.16,1.07,0.62,-1.05,-0.27,1.04,-0.01
"ex1399",0.69,-1.30,1.42,1.31,-1.02,0.94,0.74,1.25,1.32,1.72,5.28,3.55,4.21,5.13,2.85,2.32,1.99,0.84,1.41,1.82,-0.97,-0.32,-0.95,1.75,-0.42,0.07,0.05,-0.47,-0.88,-0.28,1.40,-1.95,1.23,1.26,-0.14
"ex1400",-1.43,2.14,0.57,0.10,4.99,4.83,6.93,5.03,2.87,2.11,2.30,0.61,0.75,0.43,-0.91,-0.85,0.26,0.61,1.61,-0.87,0.36,0.86,-0.27,-0.60,0.02,-0.28,-0.07,0.02,0.74,-0.20,-0.91,-0.32,0.56,1.28,-0.52
"ex1401",0.17,-1.10,1.37,0.38,2.07,1.99,3.53,2.95,3.01,2.10,3.66,2.44,0.91,1.69,1.03,2.20,1.01,0.45,1.12,0.83,1.15,0.47,0.16,2.23,0.54,-0.98,-0.34,-1.17,2.78,0.44,1.04,0.65,0.64,0.88,-1.02
"ex1402",-1.54,0.56,-0.67,0.02,0.51,1.40,1.47,3.37,2.67,3.96,4.62,3.66,2.23,3.06,2.34,2.16,-0.67,-0.09,0.15,0.94,1.21,-0.06,-0.13,0.06,-0.13,-0.26,1.03,0.83,-0.34,1.46,0.54,-0.13,1.43,-0.99,0.11
"ex1403",-0.02,0.14,1.36,3.80,6.15,5.38,3.97,4.05,2.70,2.36,1.93,2.61,1.60,-0.84,-0.65,0.24,-2.48,-0.23,-1.04,0.07,-1.60,2.27,0.89,0.55,0.65,-0.83,-0.50,-0.74,0.23,0.13,-0.33,-1.72,-0.70,-0.69,0.76
"ex1404",0.66,1.19,-1.63,0.73,1.21,-0.16,1.01,0.31,-0.44,2.59,3.26,1.22,2.39,2.22,6.71,5.07,4.47,4.15,0.63,-0.01,-1.07,-0.51,-0.49,0.48,0.12,1.66,0.51,-0.44,0.00,0.89,-1.90,0.31,-1.65,-0.99,0.21
"ex1405",1.16,-0.86,-0.04,1.70,-0.50,1.90,1.01,0.68,0.65,3.46,2.99,2.21,2.84,3.73,5.63,4.37,2.66,3.08,1.69,0.19,0.52,0.40,0.54,0.72,0.31,0.79,0.50,-0.77,-0.48,-1.20,0.18,-1.89,0.78,0.60,-0.83
"ex1406",0.50,-1.80,1.11,-1.15,-0.07,-0.38,0.14,0.55,1.37,2.12,4.30,3.39,4.64,3.92,5.09,4.05,3.18,1.03,1.07,1.65,1.00,-1.01,0.02,-1.20,0.59,-1.56,-0.58,-1.09,-0.51,-1.17,-1.41,1.48,-1.57,-0.63,0.89
"ex1407",0.56,-0.85,-2.28,-1.39,0.37,0.10,1.18,0.27,4.31,3.89,6.69,3.49,3.86,2.12,1.53,2.97,2.48,-0.07,1.51,1.42,-0.25,-0.27,1.96,-0.44,-0.80,0.31,0.43,-0.94,0.86,0.58,0.51,0.72,-1.14,-0.56,-0.46
"ex1408",0.07,-0.81,2.99,2.45,2.12,4.23,3.72,2.37,2.17,1.83,2.41,2.67,2.14,1.84,1.57,2.75,1.07,1.98,1.52,0.97,-0.10,1.51,-0.09,1.23,-2.24,2.27,0.26,1.49,0.34,1.17,1.14,0.16,0.61,-1.95,0.17
"ex1409",-0.01,0.73,0.13,0.63,-0.05,-0.36,3.08,1.19,-0.53,0.92,3.77,3.76,3.43,4.93,5.72,3.58,1.88,1.57,4.09,1.90,-0.72,0.39,-0.84,-0.06,1.64,-0.31,-1.56,-1.87,1.05,-0.27,3.32,0.40,-0.53,1.06,1.16
"ex1410",0.97,1.15,1.25,1.38,0.72,3.24,3.97,4.66,5.00,4.99,6.73,4.48,3.38,2.79,0.71,1.01,-0.47,-1.23,-1.14,-0.36,-0.31,1.88,-0.32,-0.92,-0.08,0.37,-0.56,-0.03,1.55,-0.07,-0.29,-0.71,0.11,0.21,2.18
"ex1411",-1.30,1.43,0.68,0.58,2.41,3.89,5.21,4.99,4.16,5.31,4.89,2.67,1.37,-0.67,-0.13,-0.41,-0.66,1.14,0.77,-0.25,0.29,1.95,0.41,0.16,0.57,-1.66,-0.67,2.40,-0.54,-0.76,0.37,0.95,-0.15,0.31,-0.36
"ex1412",-3.15,-0.47,0.95,-0.06,1.25,2.47,3.05,2.02,2.00,-0.53,2.50,2.04,2.65,2.59,4.02,2.82,1.91,1.39,1.20,-0.10,0.75,-0.30,-1.44,0.30,-2.17,1.61,-0.15,-2.02,-1.02,-2.10,-0.19,0.20,0.11,-1.96,1.14
"ex1413",0.38,-0.77,0.57,-1.75,-1.76,-0.30,0.43,1.51,1.47,3.28,3.13,4.42,3.69,5.22,3.87,2.23,2.64,1.46,1.19,1.85,-0.88,-0.25,-0.76,0.24,0.53,-0.46,-1.68,1.15,1.12,0.54,0.13,-0.02,0.58,-0.22,1.13
"ex1414",-1.20,0.67,-0.41,0.27,0.19,0.82,1.41,2.89,2.14,1.81,4.86,3.08,4.11,2.77,3.24,2.92,1.74,1.46,0.56,0.00,-0.06,-0.09,1.47,0.48,-0.41,-0.83,0.09,0.12,0.13,0.64,0.02,-0.04,-0.76,0.71,0.25
"ex1415",-0.22,-1.52,0.10,0.31,-0.90,1.66,1.72,-0.02,1.38,0.46,2.94,2.39,2.47,5.36,5.56,4.24,4.29,4.21,1.64,0.41,0.51,0.93,-0.78,0.28,-0.50,1.83,0.15,-0.01,-1.22,-1.11,-0.51,-0.43,-0.95,-1.46,-2.46
"ex1416",0.95,-0.69,0.54,3.76,4.66,4.64,5.99,6.38,4.52,3.50,2.52,-0.52,1.41,0.80,0.16,-0.24,-0.11,-0.77,2.96,-0.73,1.08,-1.64,0.52,-1.49,0.71,-0.03,-0.56,-0.59,0.36,-0.41,0.64,0.03,-0.30,1.34,1.64
"ex1417",0.39,-0.83,0.68,0.69,1.04,2.38,0.54,3.20,1.25,0.57,0.06,2.83,0.41,2.94,2.52,1.52,3.56,1.63,2.95,0.74,1.05,-0.34,-0.52,-1.61,2.21,-0.82,-1.42,-1.64,-0.80,1.88,2.76,1.16,0.22,0.95,0.60
"ex1418",-0.69,2.27,0.56,2.87,3.80,4.91,5.09,5.65,5.01,4.01,3.92,0.93,-0.73,-0.42,1.67,0.46,0.56,-1.33,0.28,0.49,0.54,1.27,-0.23,-1.57,-1.29,-2.19,0.08,1.98,-2.07,-0.28,0.45,-0.68,-1.97,0.41,-1.96
"ex1419",0.05,-0.55,1.32,3.05,4.23,3.98,5.32,4.16,1.89,2.19,0.03,0.67,0.27,2.48,2.99,2.93,1.02,1.24,0.14,1.46,-0.73,0.71,-0.41,-1.05,-1.07,-1.39,1.57,-0.07,1.31,-0.76,-1.18,1.08,-0.26,0.46,-0.75
"ex1420",0.76,2.06,0.82,1.87,3.02,5.67,7.81,5.54,3.11,2.25,2.95,0.35,-0.12,-0.89,-0.32,0.93,0.40,0.34,-0.40,1.97,-1.39,-1.56,-0.71,1.32,0.14,0.01,-1.36,-0.39,-0.63,0.48,-0.82,0.47,-0.77,0.39,-1.30
"ex1421",1.38,-0.73,-1.04,1.50,-0.84,1.54,0.84,0.05,0.46,2.24,1.73,3.76,3.52,3.30,5.70,1.92,3.13,1.54,1.02,-0.44,-1.16,0.60,-0.54,-0.62,2.95,1.01,-0.20,0.92,-0.44,0.92,-0.16,0.30,0.07,0.68,0.94
"ex1422",-1.83,0.04,-0.62,-1.63,-2.12,0.94,1.54,1.44,4.00,3.00,4.40,3.30,2.99,4.27,3.50,2.06,1.10,0.73,2.77,-0.20,-0.75,-0.66,-0.29,-0.82,0.22,0.17,0.35,-0.24,0.87,0.31,-0.14,0.20,2.03,-0.37,-0.03
"ex1423",-0.31,0.41,0.03,1.64,2.19,2.20,4.46,3.91,2.31,1.42,3.24,1.91,0.88,1.74,1.28,2.60,0.50,0.07,1.20,-0.19,-0.21,-0.46,-1.47,-0.47,-0.08,-0.48,0.22,0.41,1.39,2.28,1.09,-0.14,-0.53,0.52,0.95
"ex1424",0.51,2.11,1.82,-0.11,3.64,1.41,2.11,3.52,1.52,3.40,2.26,3.13,1.15,2.91,3.93,1.31,1.86,1.23,1.63,1.44,-0.24,-0.67,1.62,-0.61,0.79,-1.36,0.27,1.02,0.82,0.24,0.18,1.11,-1.11,-0.16,-0.11
"ex1425",1.59,0.39,-1.15,-0.11,0.17,-0.26,-2.70,1.68,0.96,1.20,2.22,1.57,5.21,6.28,3.44,3.83,3.69,3.95,1.69,1.82,-0.05,-0.34,-0.22,-1.21,-1.86,-0.61,-0.89,-0.20,-0.65,0.30,-0.45,2.21,-0.62,-1.64,-0.25
"ex1426",-0.30,-1.65,2.25,1.49,1.16,2.15,2.20,3.37,4.32,2.97,4.91,4.01,3.30,1.57,-0.53,-0.65,-0.25,0.81,0.06,0.86,0.84,-0.72,0.79,-0.01,0.66,0.19,-1.76,-0.17,2.01,-0.40,0.63,2.74,-0.82,-1.07,-1.62
"ex1427",-1.78,0.05,2.14,-0.23,-1.40,0.75,0.12,-0.21,3.29,1.74,4.01,2.47,3.32,2.91,3.06,3.24,1.71,0.80,2.03,1.40,-1.90,0.72,0.78,0.63,0.30,0.88,0.06,0.78,2.15,0.38,0.40,0.25,-1.08,0.27,-0.11
"ex1428",0.09,1.09,-2.15,0.20,-0.59,1.97,3.51,3.50,3.37,3.72,4.76,5.77,5.24,1.31,3.77,-0.07,0.29,0.43,-0.60,-1.10,-0.31,-0.89,-0.22,0.71,1.60,0.16,-0.09,-0.36,0.21,-0.40,1.39,-0.45,-0.56,0.44,-2.19
"ex1429",-0.43,0.06,-0.27,-2.25,-0.62,0.94,1.00,2.15,2.18,0.93,3.60,3.18,2.91,5.17,5.27,2.99,1.07,1.42,1.93,1.42,-2.83,1.34,-0.80,1.52,-0.07,0.64,-0.44,-1.63,0.34,-0.17,-0.11,0.62,0.30,0.88,0.06
"ex1430",-0.55,-1.30,-1.75,0.94,0.27,1.45,1.74,-0.82,1.21,1.56,2.31,3.10,4.94,4.92,4.73,6.07,1.80,4.69,0.96,0.01,0.75,-0.66,1.10,0.74,0.29,1.88,0.79,0.34,-0.88,-0.90,0.86,-0.03,1.40,0.11,0.32
"ex1431",0.37,0.07,1.43,1.24,2.95,2.62,2.13,3.70,4.34,2.70,4.02,4.18,3.23,1.16,1.00,0.22,-0.21,0.56,0.73,0.25,-0.15,-1.59,-0.83,-0.05,-1.85,1.46,0.34,0.07,0.09,-1.12,1.86,-0.52,-0.56,-1.25,0.28
"ex1432",-0.40,-0.32,0.63,0.21,1.06,2.18,0.95,0.99,2.27,2.64,3.48,4.71,4.00,3.97,5.07,4.79,2.51,1.67,1.70,-0.48,-1.02,-1.08,0.18,-0.12,0.29,-0.07,-1.13,-0.15,0.23,1.45,0.44,0.75,1.64,2.13,0.26
"ex1433",0.76,0.58,3.73,1.68,3.29,5.70,4.11,4.22,2.94,2.27,3.55,-0.38,1.41,0.02,0.13,-0.08,-0.84,1.92,0.60,-0.90,-0.35,0.48,0.21,0.13,0.85,0.56,0.38,1.19,0.46,-1.52,1.82,-1.49,-0.03,-0.42,-1.25
"ex1434",1.01,1.23,1.44,1.16,3.05,3.74,3.77,6.69,2.77,3.72,1.12,0.10,0.89,2.11,0.33,0.91,1.47,-1.01,1.40,-0.72,-1.30,-0.11,-0.72,-0.44,-0.48,1.27,0.69,0.10,0.49,-0.02,-0.68,0.01,-0.18,-0.55,1.73
"ex1435",-0.17,2.21,0.58,1.46,1.25,2.22,1.31,4.49,4.30,4.50,6.05,4.08,4.39,2.53,3.15,0.14,-0.48,-0.31,-0.72,0.62,0.32,1.23,-0.26,-1.27,-0.73,-0.70,0.35,0.11,0.23,-1.30,0.28,-2.63,-0.85,-1.25,0.32
"ex1436",-0.67,0.03,0.35,-0.94,-0.75,0.88,2.13,2.86,2.93,5.81,5.13,5.06,4.44,4.24,3.15,0.02,-0.86,-0.45,0.73,-1.18,-0.07,-1.23,0.53,1.22,-0.08,0.19,1.30,0.29,-0.37,-1.72,0.26,-0.24,-0.07,-0.79,1.23
"ex1437",-1.59,1.54,0.83,-0.13,0.57,0.18,1.18,3.14,1.81,-0.08,0.34,1.38,2.82,5.22,5.65,3.22,3.88,2.29,1.96,-0.33,0.93,0.66,0.74,-0.69,0.24,1.18,0.79,-1.60,-0.79,-2.06,-0.42,0.46,1.21,-1.02,1.34
"ex1438",-0.75,1.22,1.27,2.56,2.71,1.51,4.11,3.64,1.78,2.62,1.79,2.07,1.17,2.87,4.77,2.11,1.78,1.61,-0.85,0.47,-0.50,0.49,1.01,1.71,-1.44,0.61,0.47,0.41,-0.47,-0.42,-2.40,2.02,-1.10,-0.42,0.38
"ex1439",0.63,0.83,-1.24,2.49,1.62,1.44,2.50,3.08,2.30,1.24,2.63,3.00,2.10,3.83,2.43,2.14,2.93,1.96,3.45,0.22,-1.07,0.47,0.78,0.30,1.01,0.14,-1.33,-0.10,0.75,1.36,0.63,0.30,-0.20,0.64,0.48
"ex1440",-0.02,0.42,0.29,0.56,1.31,3.13,3.78,3.20,1.10,0.91,1.14,2.63,2.76,1.86,2.04,4.24,1.51,2.54,2.90,-0.06,0.44,0.89,-0.18,-1.42,-0.60,1.01,1.52,-0.35,-1.93,-1.16,0.94,1.17,-0.52,-0.17,-0.25
"ex1441",-1.62,2.53,-0.56,1.73,1.11,4.08,6.48,2.96,5.02,3.00,3.76,2.01,3.12,1.10,-0.96,1.78,0.90,0.48,0.45,0.60,-0.69,1.09,-0.37,0.73,0.04,-1.02,-0.75,0.46,0.40,0.08,-0.25,0.55,1.33,-2.50,0.10
"ex1442",0.57,1.36,-0.36,1.88,2.56,4.69,4.82,4.78,2.96,4.08,2.09,2.14,0.71,0.18,-0.19,0.05,-2.08,-0.35,-0.87,1.10,0.09,0.08,2.31,1.23,-0.81,-1.67,-1.11,-0.07,0.06,0.01,-0.32,-0.53,0.09,1.07,-1.13
"ex1443",2.03,1.66,1.09,1.04,-0.21,0.68,3.14,1.44,1.89,3.47,3.05,4.44,3.68,2.96,4.18,2.54,3.22,1.37,0.92,0.35,-1.05,0.14,-1.22,0.04,0.20,1.19,-0.22,1.11,-0.55,0.45,0.99,0.08,0.25,-0.35,0.87
"ex1444",-0.29,1.46,-0.33,2.76,3.82,3.65,5.50,5.76,4.01,3.62,3.30,3.56,0.65,1.64,1.50,1.79,1.17,1.45,0.81,0.95,0.45,0.47,0.57,-0.00,1.28,-0.06,-0.76,-1.00,-0.43,-0.49,0.86,-0.46,2.07,1.38,-0.02
"ex1445",0.63,1.38,1.99,4.15,2.18,3.17,4.92,3.76,3.18,2.63,0.81,1.62,-0.43,-0.80,0.82,2.65,0.20,0.63,0.85,-2.67,-1.38,0.05,-0.63,-0.42,-0.45,0.40,-0.52,0.92,-2.27,0.13,-0.46,0.78,0.65,1.05,-0.16
"ex1446",0.47,-0.53,-0.37,0.43,3.17,2.39,2.67,3.03,2.51,4.93,4.12,3.53,3.78,0.96,1.22,1.09,-0.59,-0.65,0.31,1.32,0.02,-0.59,-0.50,1.03,-1.15,0.41,0.07,-0.21,-0.45,-0.02,2.00,-0.45,-0.78,-0.70,0.50
"ex1447",0.48,0.58,-0.46,2.91,1.38,3.04,2.55,4.42,3.40,4.71,5.63,5.23,1.62,1.37,2.96,-0.99,1.05,-0.83,-0.42,-0.80,-0.27,-0.35,-0.04,0.67,-0.69,-0.11,1.03,-0.45,1.61,-0.90,0.73,0.26,-0.07,0.11,1.12
"ex1448",-0.38,1.81,-0.12,0.52,1.93,4.07,4.15,4.50,3.96,3.42,4.45,0.83,2.07,3.02,0.41,2.09,0.25,-0.09,-0.95,0.94,-2.35,1.13,1.14,-1.27,-0.53,1.22,0.26,-0.20,0.26,-0.07,-0.42,-0.44,-1.04,-0.97,-0.34
"ex1449",-0.93,-0.18,0.52,-1.11,0.51,0.01,2.71,3.57,4.40,5.08,5.89,5.12,3.24,4.55,3.83,1.02,0.42,-0.00,0.33,2.40,-0.30,1.48,0.74,0.39,1.21,0.61,-0.89,0.10,1.18,0.67,0.29,2.24,0.46,1.17,1.29
"ex1450",0.23,1.17,-1.32,1.02,-0.59,-0.37,0.47,2.17,1.57,3.69,3.77,5.77,4.41,2.06,3.96,1.48,2.01,1.73,1.08,0.01,0.12,1.55,0.78,-2.22,-0.44,0.24,-1.16,1.32,-0.37,0.08,0.81,-0.27,1.12,-1.28,-0.11
"ex1451",-0.10,0.29,1.01,1.48,2.79,2.79,3.43,4.87,2.41,2.49,3.37,1.70,0.89,1.97,0.06,-0.72,-1.46,-0.67,0.13,0.06,-0.78,0.44,-0.41,0.66,0.67,0.63,-0.01,-0.33,-1.09,1.93,0.53,-1.05,1.15,-1.46,0.20
"ex1452",1.32,2.07,2.22,3.34,3.43,3.65,5.14,4.26,3.33,2.10,2.56,0.96,1.45,0.57,1.25,1.27,-1.36,2.61,0.14,0.15,0.82,-0.67,0.15,-0.52,0.05,0.57,0.69,0.12,0.70,-0.88,0.18,1.86,0.09,1.30,-1.44
"ex1453",0.08,1.08,0.95,0.46,2.31,0.48,2.99,1.09,0.84,2.78,3.40,3.59,4.22,2.14,3.10,3.56,2.89,2.23,2.95,0.97,0.78,-2.07,-0.03,1.11,-1.07,1.56,1.25,1.01,-0.11,0.02,-1.10,1.19,-1.34,-0.06,-1.55
"ex1454",-2.98,0.68,0.87,-0.56,1.17,0.19,0.94,3.47,4.10,4.16,5.65,5.59,2.97,2.44,1.52,2.55,0.70,0.50,0.96,0.45,0.17,-0.68,0.64,-1.83,-0.20,-1.36,-1.96,-0.45,0.96,0.16,-1.12,-0.53,-0.64,-0.64,-0.27
"ex1455",-2.12,1.26,1.77,2.35,3.88,4.26,6.42,6.18,1.93,3.90,2.26,1.06,0.98,-0.24,-0.32,-0.09,-0.19,0.91,-0.61,-0.26,0.16,0.72,-0.07,-0.27,-1.41,-0.29,-0.54,-0.02,1.08,-0.55,-0.95,1.76,0.61,1.74,-0.01
"ex1456",0.38,1.40,1.58,1.12,0.65,4.36,4.39,1.86,3.00,2.80,0.34,2.07,-0.21,0.18,1.14,0.87,0.52,2.41,0.55,1.81,0.63,-0.21,0.73,2.20,0.56,0.86,-0.83,1.33,-0.48,0.71,2.76,0.75,1.83,-1.53,0.03
"ex1457",-1.61,-0.41,1.59,-1.07,-0.72,1.26,0.98,2.18,1.95,4.18,4.62,4.53,5.19,2.77,3.22,0.67,0.19,-0.33,-0.15,-1.69,0.05,-0.17,-0.31,0.28,-1.10,-1.48,-0.55,0.57,0.08,1.51,-1.36,-0.02,-0.12,-0.61,1.25
"ex1458",0.16,-1.81,-0.74,1.87,1.98,-1.84,2.02,0.44,0.88,-0.97,4.25,2.71,2.85,4.65,4.11,4.87,4.84,3.78,1.03,0.76,-1.45,0.40,1.03,-1.86,-1.36,0.26,-0.92,-1.98,0.15,-0.69,0.42,-0.49,-0.62,0.75,-0.46
"ex1459",-1.02,0.93,1.27,2.95,2.35,4.76,3.48,4.32,2.31,1.43,-0.30,3.30,0.94,3.90,2.85,1.78,3.00,0.73,0.81,1.26,1.73,0.38,-2.53,-1.52,-0.44,-0.50,-1.95,-0.97,0.52,-1.29,-1.62,-0.52,-1.60,-0.18,-2.14
"ex1460",-0.58,1.05,0.30,-0.92,-1.50,0.85,0.52,1.12,-0.84,1.66,2.42,2.87,3.99,3.43,5.66,5.91,3.74,0.73,3.45,-0.09,-1.07,0.44,0.99,0.02,-1.22,-0.74,-0.46,0.98,-0.29,-0.80,-0.13,0.65,-0.37,0.86,-0.23
"ex1461",-1.33,-0.53,1.79,-0.60,0.17,1.81,0.75,1.81,2.57,2.81,4.57,5.35,5.41,2.69,1.59,2.15,0.47,0.64,-2.19,1.98,-0.21,0.08,0.64,1.95,-2.80,-1.18,-1.44,-1.23,-0.03,1.07,-2.23,-0.49,-0.43,-1.32,-0.75
"ex1462",-1.96,-1.12,1.03,-1.79,-0.90,0.92,2.35,1.88,4.58,4.56,7.35,4.89,4.01,-0.02,0.93,2.14,1.61,-0.05,0.39,-0.34,-0.96,-0.45,-1.18,0.24,-1.21,0.93,-0.32,-0.47,1.69,1.76,-0.28,-0.95,1.06,1.30,1.28
"ex1463",0.73,-0.35,0.75,1.98,2.61,3.69,4.32,3.20,3.15,2.03,2.04,1.88,-0.35,2.90,2.71,-0.08,0.27,2.22,1.08,0.39,0.07,-1.68,-0.21,0.20,0.48,0.26,-0.48,0.92,0.95,-1.38,0.15,1.30,1.82,1.48,-0.29
"ex1464",0.24,1.06,0.87,1.70,1.24,4.55,3.49,2.92,1.63,2.46,-0.24,0.52,3.38,2.23,2.19,2.35,0.95,0.49,0.82,-0.41,1.35,-1.72,-0.09,0.49,-1.66,-0.57,-0.47,0.34,0.43,-0.59,-1.28,-0.38,0.57,0.01,-0.38
"ex1465",-1.36,1.72,1.17,3.12,2.23,5.57,5.79,4.59,4.64,2.80,0.95,0.55,0.79,-1.64,0.24,1.16,-0.32,-0.08,-0.80,-0.22,1.29,-0.26,-0.77,0.07,1.96,-0.51,0.85,1.60,-0.52,0.91,0.85,-0.51,-0.28,-3.01,0.59
"ex1466",-0.76,1.46,1.59,3.68,5.32,4.24,3.67,6.49,4.74,2.84,2.43,0.70,-1.07,0.98,-0.41,-2.04,-1.53,-0.32,-0.01,1.09,0.11,-1.03,1.37,0.77,-0.31,0.38,-0.68,0.00,-2.34,0.86,0.41,-1.42,-1.41,-1.11,0.32
"ex1467",1.00,1.30,0.39,1.66,1.16,1.62,1.77,1.97,1.06,2.38,2.09,3.37,1.26,3.61,4.04,2.44,3.46,2.46,2.21,1.00,2.46,-0.25,0.07,-0.69,-0.21,0.26,0.35,1.13,-1.92,0.38,-0.67,1.76,0.43,-1.14,0.51
"ex1468",-0.06,-1.21,1.32,3.48,3.10,5.73,5.39,4.43,3.39,2.18,4.20,0.84,1.81,-0.22,-0.59,0.84,1.41,0.49,0.09,-1.44,0.08,-0.57,0.43,0.92,1.65,-0.08,-0.67,0.19,-0.11,-0.21,-0.06,0.10,-1.02,0.70,0.70
"ex1469",0.19,-0.76,-0.66,-0.92,1.69,1.35,0.21,2.38,3.72,4.11,5.41,5.83,4.17,3.13,4.17,2.33,3.51,1.51,2.03,-0.54,2.20,0.99,0.88,-0.50,-0.31,-1.47,1.07,-1.22,0.10,-1.41,0.49,1.31,-0.32,-0.62,1.22
"ex1470",-1.31,0.41,-0.63,0.36,-0.28,-1.77,-0.47,0.52,1.10,0.97,3.56,2.39,3.83,2.90,3.14,3.45,4.18,3.46,0.55,0.63,-0.01,0.63,1.49,-1.21,1.07,-0.87,-0.59,0.93,-0.47,0.25,-0.95,0.56,-1.33,-0.95,1.01
"ex1471",-0.10,0.71,1.61,1.25,-1.16,-0.81,-0.57,1.02,0.56,1.40,1.75,3.28,3.25,4.24,7.50,4.77,4.82,3.32,1.13,2.30,0.42,1.13,-0.01,0.94,1.31,1.07,-0.52,0.47,0.41,1.37,-1.82,-1.08,-0.10,1.29,1.14
"ex1472",1.30,1.22,1.55,2.02,1.37,3.30,1.26,0.61,1.50,3.61,2.74,1.56,2.22,3.96,4.32,2.74,1.81,3.00,1.05,1.34,-1.33,1.06,0.92,0.43,-0.43,0.04,-2.06,1.28,0.38,0.87,-0.14,0.57,1.11,-0.32,1.28
"ex1473",-0.91,0.06,1.11,0.56,5.44,3.33,2.68,4.19,1.39,4.13,1.27,0.51,0.60,4.02,4.01,2.37,1.18,-0.48,-1.22,-0.59,-0.58,-0.32,1.01,0.88,0.32,-1.48,-0.04,-0.09,-0.33,0.31,-0.70,-2.28,-1.09,-0.28,-1.39
"ex1474",0.42,1.28,-0.24,-1.40,-0.33,1.48,0.43,2.41,3.39,5.18,6.86,4.06,4.42,4.08,1.24,0.22,1.10,-0.16,0.84,0.06,1.27,-0.24,-0.78,0.23,0.29,0.81,0.79,0.04,-1.44,1.14,1.70,-0.80,-1.08,1.53,0.66
"ex1475",0.84,-0.65,1.30,-1.13,1.22,-0.13,1.25,-0.92,0.80,1.13,1.43,4.16,6.26,3.03,4.25,4.56,3.23,3.33,0.27,-0.29,-0.14,-0.42,0.94,0.15,0.27,-1.12,-0.07,0.25,0.49,0.59,-1.02,0.20,0.65,-0.36,0.51
"ex1476",1.70,-0.50,1.63,-0.41,1.79,-0.68,1.43,-1.93,1.10,0.41,2.72,2.73,4.54,3.33,5.34,4.12,3.95,1.95,0.61,-0.18,-0.61,1.58,0.38,-0.11,0.90,-0.32,-0.34,0.91,0.59,-0.40,-0.82,0.70,-1.04,-0.29,1.20
"ex1477",0.34,1.93,0.33,2.40,3.74,6.01,3.72,4.57,3.82,3.59,2.29,0.75,1.89,0.71,-0.37,0.80,-0.34,-0.26,-0.54,-1.07,2.23,-0.72,2.75,-2.21,-0.73,-0.93,0.70,0.98,0.12,-1.05,-0.28,2.58,0.31,-1.45,-0.00
"ex1478",-1.62,1.33,-0.98,1.09,0.45,0.37,2.43,2.29,5.07,6.30,3.71,3.78,5.36,3.17,3.07,2.03,0.99,0.62,-0.07,0.07,-0.73,-0.84,-1.00,0.45,0.88,-2.51,1.51,0.73,-1.61,1.20,-0.26,-0.86,0.16,0.19,-0.34
"ex1479",-1.14,1.24,2.07,1.36,4.70,3.45,3.69,3.21,1.40,3.07,1.18,2.34,1.37,1.75,0.54,0.51,2.50,0.76,0.77,-1.09,0.99,-0.26,-0.33,-1.03,-1.40,-0.23,-1.07,1.51,0.43,0.33,-0.82,1.17,2.75,0.90,0.76
"ex1480",0.83,0.97,0.76,0.65,0.56,0.30,2.35,3.60,3.37,2.81,3.14,4.02,3.80,2.39,1.19,-1.47,-0.89,0.77,0.73,-0.90,-0.41,-0.12,-0.84,1.18,-1.28,-0.84,1.20,0.02,0.71,0.36,-0.47,-2.23,-0.29,-1.66,0.44
"ex1481",0.65,2.28,-0.22,2.70,1.68,4.25,3.78,3.53,2.45,4.81,5.29,2.23,3.52,1.62,-0.34,0.03,0.36,-0.04,-1.13,1.04,1.30,-0.28,-0.55,-0.38,0.84,-0.03,0.26,-2.07,-0.19,-1.46,-0.28,0.51,1.06,-0.67,-0.92
"ex1482",-0.06,-0.41,1.00,3.20,3.53,2.94,5.51,1.82,2.53,0.15,3.47,1.67,3.03,1.66,1.93,2.26,1.55,1.63,-0.91,1.38,0.17,1.21,-0.03,-0.53,0.52,0.27,0.64,0.66,0.33,0.28,-0.78,0.63,0.83,-0.15,0.20
"ex1483",0.87,1.12,-1.61,-0.60,1.28,-0.21,0.98,-0.53,2.68,0.29,-0.01,2.16,4.98,3.40,4.77,4.67,5.52,2.78,2.60,1.14,1.52,-0.32,-0.47,0.76,2.10,1.27,-0.97,1.84,0.65,1.40,-1.17,-1.19,0.87,0.90,0.22
"ex1484",0.50,2.04,1.16,-0.00,0.67,0.29,1.23,2.75,1.94,3.03,1.99,2.49,4.16,4.09,5.53,3.80,3.57,2.42,0.43,1.45,-0.95,3.30,1.21,-1.20,2.30,-0.29,-3.09,-1.19,-0.17,-1.93,0.46,-0.54,-1.60,0.94,-1.63
"ex1485",-0.20,2.75,2.06,3.33,3.29,5.08,6.23,5.99,4.71,4.04,2.98,-0.92,0.66,0.26,0.02,1.06,0.06,0.83,-1.39,-1.39,-0.21,0.01,-1.31,0.64,-1.84,-0.47,0.79,0.76,1.63,0.09,1.04,-0.21,1.93,-1.43,-2.55
"ex1486",-0.71,-0.41,0.71,-0.78,-2.61,-0.95,-1.00,-1.47,-0.73,3.52,3.88,3.48,5.20,5.74,4.23,6.84,2.80,3.36,1.52,2.14,0.18,1.60,-0.58,1.10,0.31,0.22,-1.67,0.19,0.76,0.63,-0.03,-0.28,-0.35,-1.20,-1.26
"ex1487",-0.53,0.35,-1.07,-1.26,-0.41,-0.18,0.51,1.53,0.67,2.92,2.34,2.29,3.01,3.85,6.16,5.24,1.55,2.70,1.43,0.33,-0.18,-0.54,-0.79,-1.41,-1.60,-2.16,-0.75,1.61,0.41,0.21,-0.92,0.96,1.04,-1.19,-0.18
"ex1488",2.33,0.96,-0.45,0.44,1.47,5.07,4.19,4.79,3.81,4.43,6.08,3.84,1.93,1.30,1.26,-0.52,1.00,0.17,0.86,0.33,-0.77,1.47,-0.11,0.81,-0.32,0.07,2.37,0.71,-2.82,0.15,0.06,1.21,0.63,-0.22,0.45
"ex1489",0.44,0.16,0.12,1.99,1.55,4.00,2.95,5.06,4.98,2.26,5.22,2.60,1.43,1.18,1.05,3.22,-2.25,0.51,-0.39,0.07,0.04,2.13,-1.22,0.12,0.58,-0.85,1.41,1.02,0.39,-0.27,0.60,1.54,-0.86,1.34,0.55
"ex1490",0.67,-0.21,1.16,0.83,-0.73,1.31,2.82,0.64,2.94,2.93,4.58,2.67,3.98,2.64,3.47,3.83,0.92,2.06,1.78,1.67,-0.02,0.19,1.74,-0.71,-1.89,-0.99,0.15,-0.34,-1.64,0.46,0.30,-0.95,1.20,-0.26,0.02
"ex1491",-1.05,-0.80,-0.43,1.11,1.60,1.29,0.91,1.93,-1.13,-0.03,-0.29,2.74,3.10,4.02,5.56,2.88,4.04,3.03,0.40,2.39,0.23,1.40,1.48,-0.95,-1.08,-0.24,1.08,-1.34,0.67,-0.41,-2.52,-1.84,1.25,0.51,-0.13
"ex1492",-1.06,-2.08,-1.81,0.66,0.87,-0.96,3.32,2.16,4.56,6.58,4.15,5.02,3.69,2.21,1.30,1.15,-2.55,0.21,-0.35,0.51,0.11,-0.52,2.57,-2.20,-0.68,-0.13,1.95,0.06,-0.44,-2.67,-0.16,0.11,-1.33,0.55,-2.01
"ex1493",0.23,1.94,1.28,2.29,0.99,4.28,3.85,3.24,2.56,2.98,2.79,1.95,2.04,2.05,3.55,4.11,1.13,2.21,-1.54,1.52,0.76,1.52,-0.26,0.33,0.67,1.16,-0.10,1.43,0.45,-0.78,-0.50,0.01,0.99,-0.40,1.09
"ex1494",-0.00,0.23,-0.69,0.63,1.82,1.91,1.32,2.12,4.05,0.79,4.07,5.23,5.86,1.67,3.70,2.16,1.03,2.35,-0.79,-0.42,-0.88,0.51,-0.57,0.72,-0.12,0.69,0.90,-0.91,0.28,0.15,-0.35,0.18,-1.41,-0.52,-0.86
"ex1495",-3.01,0.77,-0.66,1.23,-0.69,1.63,-0.04,0.49,2.70,2.00,3.06,3.46,3.55,3.37,3.74,4.60,-0.25,0.96,0.87,-0.42,-0.52,0.58,0.51,0.34,-0.95,1.46,-0.15,0.21,1.60,0.31,0.16,-0.83,0.85,0.66,0.38
"ex1496",0.52,-0.81,1.69,-1.20,0.42,2.41,1.90,1.73,2.99,1.91,3.88,4.22,5.22,2.89,4.02,2.42,0.91,0.41,-0.33,0.94,0.80,1.24,1.58,-0.37,0.49,-0.87,1.36,-0.10,1.14,1.05,-0.39,-0.04,1.21,1.00,-0.18
"ex1497",-0.32,1.10,0.42,3.07,5.36,2.43,5.03,5.89,3.32,3.11,2.63,-0.76,-0.92,-1.56,0.07,0.16,0.85,-1.00,-2.85,0.72,-0.33,-0.86,-0.39,-0.54,-1.29,-0.45,0.53,0.48,0.64,-0.50,-0.72,0.94,-0.49,-0.92,1.16
"ex1498",-1.41,-0.57,-0.97,2.20,-0.07,-1.30,2.08,1.49,0.80,0.62,1.18,1.21,2.81,4.56,4.98,4.18,4.27,3.12,1.17,-0.02,-1.25,1.58,-0.35,-0.69,0.04,-2.06,-0.83,-1.57,-0.82,-0.71,0.92,0.10,0.68,-1.52,-0.20
"ex1499",0.24,-1.51,-0.97,0.03,-0.51,1.30,0.90,2.33,5.80,5.47,3.83,3.93,5.52,3.16,1.89,0.08,0.13,1.20,1.06,0.44,-1.86,1.22,-1.42,0.03,-0.95,0.42,-0.88,0.21,0.74,0.21,-0.96,-0.56,0.08,0.48,1.08
"ex1500",-0.56,0.77,-1.30,-1.16,-0.59,-0.63,0.72,1.77,1.18,1.49,5.20,3.41,4.13,4.31,5.19,4.50,3.70,1.87,0.90,0.50,-0.85,-0.85,-1.42,1.07,1.14,-2.32,0.29,0.24,0.44,-0.49,0.08,-0.25,1.97,-1.00,-1.54
"ex1501",-0.51,-0.01,-1.32,-0.85,0.89,-1.00,1.65,3.48,2.91,2.95,6.04,3.10,4.35,4.38,2.87,2.40,1.68,1.29,-0.67,1.09,-1.53,-0.49,0.53,-0.44,1.01,0.62,0.80,0.72,-0.97,0.44,-0.03,-1.35,-1.17,-0.14,-2.10
"ex1502",-0.95,2.89,2.08,2.52,4.78,4.25,4.54,4.62,3.77,4.06,1.54,0.42,1.22,0.93,0.80,-0.43,-0.14,-0.89,0.18,1.43,-0.59,0.45,0.38,1.74,1.63,0.93,1.60,-2.56,-0.92,-0.60,-0.15,0.02,0.86,-1.08,-0.58
"ex1503",0.72,1.73,2.08,2.22,2.47,3.32,4.14,3.87,3.68,3.74,3.32,-0.20,-1.15,2.58,0.54,-0.97,-0.48,-1.87,-0.25,1.92,0.99,-0.42,2.22,-0.44,-0.62,1.31,-0.94,-0.80,-0.42,-1.32,-0.08,0.53,-1.12,-1.04,0.73
"ex1504",0.36,0.22,0.71,-0.48,3.32,2.39,2.52,2.25,1.05,0.82,1.35,2.80,2.14,2.82,3.87,1.86,4.22,1.05,2.38,0.67,0.27,-0.16,0.06,-1.85,-1.49,-0.29,0.61,1.36,-0.34,-0.50,0.24,-0.12,-0.51,-0.76,1.58
"ex1505",0.70,-1.21,0.62,-0.51,-0.86,0.39,0.28,0.25,1.57,1.89,1.94,1.85,4.65,4.20,5.02,5.71,3.72,3.17,3.14,1.02,-0.80,0.15,0.11,2.30,-1.02,0.01,0.54,0.76,1.11,-1.74,-0.26,1.58,1.09,-0.31,-0.29
"ex1506",0.14,0.31,0.50,2.84,-3.47,1.65,0.71,1.34,2.16,1.97,3.16,4.07,4.60,5.68,6.14,1.79,1.53,1.03,1.29,0.70,-0.41,1.82,1.49,0.39,0.16,-0.66,-1.20,2.86,-0.08,1.71,-2.68,-0.35,-0.72,-0.85,0.56
"ex1507",-0.17,-1.64,0.12,0.43,1.95,2.25,1.90,3.54,4.05,3.26,3.91,4.07,5.00,4.03,0.32,1.05,-0.36,0.61,-0.94,0.45,-0.30,0.50,0.47,-1.46,0.44,-0.94,-0.53,0.16,-0.35,0.67,-0.09,-0.42,0.66,2.17,1.24
"ex1508",0.22,-0.49,-0.60,1.21,3.15,2.79,4.70,5.45,3.61,3.90,2.68,2.50,2.05,2.71,-0.11,0.84,-0.78,-1.55,0.69,0.58,-0.14,0.10,0.66,1.07,0.36,-2.36,0.67,-0.31,-0.85,-0.03,0.01,-0.63,1.42,0.89,1.49
"ex1509",-0.81,-1.50,2.51,1.34,0.28,-1.05,0.77,1.80,2.21,0.29,2.59,1.72,3.04,4.65,3.49,3.56,1.53,3.29,2.84,1.03,0.75,1.44,-0.53,2.39,-0.56,-0.63,-0.56,-0.54,-0.38,1.12,0.33,0.02,-0.76,-0.13,1.45
"ex1510",-1.28,-0.05,0.52,2.28,2.86,1.65,4.97,3.42,4.54,2.40,4.37,2.86,1.69,1.74,0.55,0.36,-1.82,-0.49,0.74,0.12,0.06,0.27,-0.37,0.08,-0.61,0.29,0.34,2.05,0.27,-0.56,0.37,-0.08,-1.11,-1.11,-0.00
"ex1511",0.31,2.01,0.84,2.67,1.11,0.56,2.94,3.55,0.98,2.09,1.70,-1.59,2.40,2.74,3.54,0.90,2.64,0.16,-0.73,-0.07,1.33,-0.51,0.69,-0.86,0.48,-0.84,-0.48,0.51,-1.04,1.04,-0.00,0.11,0.29,-0.62,0.28
"ex1512",-1.81,-1.78,-0.05,-0.66,-0.05,-0.03,0.74,1.69,1.38,0.42,2.00,3.55,3.64,5.86,6.18,6.63,2.63,3.07,2.41,1.45,0.62,-0.98,0.13,0.78,-1.69,0.84,-2.26,1.39,2.21,-0.79,0.14,1.53,1.75,1.50,0.63
"ex1513",-0.77,-0.41,2.11,0.42,3.46,4.00,4.12,3.41,3.41,5.23,3.78,2.50,1.93,0.35,-0.07,-2.77,1.10,1.33,-0.19,0.04,-0.55,-1.20,0.65,0.07,0.26,1.09,-0.83,1.09,0.60,-0.47,-0.85,-0.32,2.59,-0.44,-0.17
"ex1514",0.74,-0.67,2.46,0.16,5.02,3.83,6.53,5.92,4.29,3.75,0.35,1.13,1.98,-0.50,-0.35,-0.75,-0.57,-0.75,-0.65,0.76,0.36,-1.19,-0.26,-0.55,-1.46,-0.17,-0.67,1.10,0.57,2.42,0.96,0.41,0.47,-1.59,-0.62
"ex1515",-0.15,2.00,-0.31,1.64,0.67,1.29,2.91,3.69,5.37,3.77,5.87,4.72,4.46,6.11,1.65,0.01,1.23,0.21,0.74,-0.30,-0.63,-0.70,-1.00,0.31,0.59,1.60,0.92,0.36,0.23,-0.16,-0.66,-1.06,-1.47,-0.57,-1.15
"ex1516",-2.75,0.87,1.42,1.73,2.65,4.19,5.01,5.20,3.94,3.73,0.44,2.06,-0.54,0.26,-0.53,2.62,-0.86,-0.17,-0.96,-2.30,-1.33,0.46,-1.28,0.58,0.97,1.23,0.53,-0.18,-1.00,0.18,-0.26,-1.85,0.38,0.84,1.27
"ex1517",-0.10,-0.28,-0.14,-1.58,-0.13,-0.38,-0.43,2.21,3.66,2.74,1.71,1.64,2.31,5.92,5.14,4.09,4.00,3.43,1.97,1.46,1.31,0.15,2.25,-0.65,0.12,-0.37,1.91,2.75,0.46,-0.57,-0.10,0.24,-1.62,1.42,0.09
"ex1518",0.32,0.57,1.90,-0.43,0.58,2.51,2.32,3.63,2.20,4.65,5.06,3.33,2.36,3.52,3.45,-1.09,2.12,-0.99,0.49,-0.19,-1.25,0.58,1.22,-1.47,-1.48,-0.14,0.20,0.08,0.04,0.03,-0.28,-0.73,-1.01,-0.55,-0.03
"ex1519",-1.30,1.06,-1.23,-0.82,0.86,1.47,-0.29,2.72,1.59,2.81,1.96,1.61,3.05,4.11,4.78,3.40,4.76,3.08,2.98,0.53,1.20,-0.55,-0.94,0.66,-0.61,0.19,-0.66,-0.26,-0.89,-0.70,0.71,-0.18,0.09,0.11,0.00
"ex1520",0.24,-0.52,0.33,1.85,3.73,5.32,3.38,4.14,4.21,2.69,2.58,2.25,0.07,2.91,1.48,-0.30,-0.69,0.68,0.43,-0.49,0.62,-0.95,1.21,-1.55,0.38,0.34,1.00,0.76,0.60,-0.36,-2.00,0.22,-0.48,1.06,0.90
"ex1521",0.45,-1.41,0.54,-0.29,0.25,-0.47,0.97,1.90,2.86,3.30,3.36,2.92,1.76,4.42,3.87,1.01,2.23,2.40,0.94,1.12,-0.38,-0.26,-0.02,-0.50,0.42,-1.87,1.68,-0.91,-0.01,-0.34,-1.19,0.52,-0.33,-0.40,0.58
"ex1522",0.90,0.16,1.72,0.28,-1.01,1.66,-1.23,1.90,0.45,4.35,4.44,4.64,3.62,3.92,3.92,2.31,3.12,0.69,0.63,0.67,1.48,-0.33,2.57,-0.01,-0.13,0.31,-1.56,0.97,-0.47,-2.38,-0.06,1.68,1.46,-0.28,-0.07
"ex1523",1.24,0.11,1.27,0.07,1.55,3.87,2.38,5.91,5.09,4.83,3.43,2.78,0.78,1.11,0.30,1.46,-0.55,-0.61,1.04,0.60,0.85,1.67,-0.17,-0.17,1.43,-0.04,1.28,1.51,-2.14,0.65,-0.28,-0.98,0.08,0.76,0.34
"ex1524",-2.39,0.97,-0.49,0.51,2.77,3.64,2.92,5.77,5.07,3.85,4.43,1.82,0.02,0.92,0.97,1.19,-1.71,0.62,-0.22,-1.07,-0.11,-0.11,0.69,0.40,-0.74,0.25,-0.53,0.84,-0.52,-1.30,0.71,-1.29,-0.33,0.68,0.59
"ex1525",0.56,1.60,4.09,3.17,4.35,4.42,3.47,4.92,2.32,3.42,2.07,0.83,-0.31,0.66,-0.22,2.33,1.52,2.44,0.51,1.09,1.71,0.00,-1.54,-0.60,0.22,-0.29,-0.37,1.11,-1.49,1.24,-0.79,0.47,-2.31,1.51,-0.52
"ex1526",0.22,2.00,0.63,2.23,4.72,4.69,4.40,4.18,4.94,4.06,3.44,1.50,-1.55,-0.99,-0.80,0.43,1.14,0.84,0.04,-0.58,0.57,0.63,-0.74,0.40,0.00,-1.10,2.22,0.22,-1.87,-0.36,0.25,-1.53,-0.09,-1.19,-0.29
"ex1527",-0.77,0.70,1.10,0.59,1.16,0.23,0.66,1.03,-0.72,2.73,0.64,4.10,2.69,4.30,8.51,3.24,3.16,1.88,2.76,1.81,0.36,-0.12,1.34,-2.33,-0.35,-0.59,1.18,-0.89,0.71,-1.18,1.09,0.19,0.44,1.45,-0.62
"ex1528",0.09,0.13,0.72,2.80,1.92,2.81,2.65,3.49,0.47,1.39,1.12,1.65,0.59,2.49,2.36,2.72,1.48,2.07,0.75,-1.50,0.42,-1.55,1.21,0.96,-0.23,0.19,0.81,-0.53,-1.36,-1.97,-0.54,0.11,-0.42,-0.34,0.53
"ex1529",0.04,-1.14,-0.20,0.27,2.42,-0.71,1.44,1.87,4.24,6.81,5.76,5.05,4.81,3.65,3.45,1.47,-0.45,-0.14,-2.31,0.26,0.37,-0.13,0.99,-0.76,-1.67,-1.07,-0.77,-0.06,1.12,1.31,-1.09,-2.52,-1.09,-0.68,-0.13
"ex1530",-0.57,0.44,-0.05,1.64,-0.45,1.21,0.75,1.99,0.68,2.14,3.82,3.70,6.43,5.06,5.58,3.84,4.78,2.54,0.60,1.03,0.40,-0.83,-0.12,-1.25,0.25,-0.28,-0.02,0.21,-1.03,-0.97,0.27,-0.62,-0.47,-0.10,-0.77
"ex1531",0.18,-0.36,-0.03,3.37,3.76,2.92,5.90,5.10,4.20,3.86,4.53,1.57,-1.54,-0.29,-1.96,-0.80,-0.79,-1.23,-1.21,-1.12,0.30,0.62,1.42,-0.59,-0.34,0.81,-0.95,-1.56,0.51,-0.60,-0.72,-0.36,0.41,-1.01,2.46
"ex1532",0.17,-0.70,1.14,0.63,1.75,1.78,2.02,0.32,2.34,2.02,1.20,2.80,3.07,4.59,6.06,3.32,3.15,2.74,2.59,0.66,-0.41,-0.74,0.89,-0.32,-1.24,0.18,1.12,-1.72,1.16,-1.28,0.35,-0.36,0.88,0.83,0.45
"ex1533",-1.17,-1.34,-1.84,0.36,0.88,0.02,1.09,-0.25,1.86,0.19,2.46,6.49,3.96,5.12,4.77,4.99,3.55,2.83,0.21,0.20,1.46,0.10,-0.48,0.49,1.14,-0.71,-0.13,-0.27,1.81,-0.96,0.31,0.26,-2.87,-1.60,-0.95
"ex1534",-0.43,-0.42,1.09,-0.51,1.33,1.42,3.18,1.53,1.99,1.91,1.85,2.42,3.06,4.95,4.77,4.36,4.46,3.39,-0.52,0.39,0.09,1.17,1.10,1.13,-0.78,-2.97,0.15,0.20,0.75,0.66,0.50,0.64,-1.04,0.30,0.96
"ex1535",0.06,-0.80,-2.62,0.61,0.29,0.20,-2.21,-0.15,0.77,1.94,2.78,2.86,4.28,4.51,7.23,5.11,2.14,1.40,1.81,2.32,0.12,-0.12,-1.11,0.01,0.86,-1.47,0.20,-0.18,0.48,0.95,1.36,0.48,-0.52,1.05,-0.71
"ex1536",0.21,0.67,-0.97,-0.90,-0.10,0.61,2.49,2.64,2.48,2.78,4.90,4.53,4.54,3.64,3.95,3.19,1.07,0.34,0.11,1.94,-1.39,1.49,-0.24,0.12,-0.38,0.91,1.53,0.77,-1.52,-2.94,-0.99,-0.10,-0.02,-0.37,-0.24
"ex1537",0.40,0.87,0.57,-0.38,0.04,2.09,1.75,0.07,2.42,2.89,4.03,4.31,4.21,5.46,2.84,1.23,2.36,0.29,0.54,0.09,1.38,0.83,-0.45,0.45,2.00,0.95,0.74,2.10,-1.97,-0.98,0.65,1.16,1.68,-0.38,-0.47
"ex1538",-0.63,-0.55,0.78,0.13,-0.89,0.53,2.96,1.65,2.47,1.29,3.35,3.31,3.64,2.62,5.19,2.92,1.99,1.15,3.18,1.15,0.65,0.22,-2.42,-0.13,1.44,0.87,-2.84,-0.54,0.21,-1.13,-0.27,-1.18,0.51,-2.12,1.28
"ex1539",0.70,0.56,1.36,0.49,1.19,-0.48,1.07,0.94,1.30,3.54,5.23,3.05,3.31,4.27,6.22,3.89,4.40,3.98,2.44,0.93,0.97,2.67,0.12,-0.18,0.37,-0.31,0.74,-1.12,-0.88,-1.15,0.37,-0.90,-0.04,0.30,-0.58
"ex1540",-1.04,0.93,-0.07,0.16,0.46,0.88,1.07,-0.92,1.02,0.43,3.47,1.20,3.48,3.66,4.33,6.10,2.15,2.57,1.33,1.92,-1.53,1.03,1.19,-1.38,-0.68,0.71,-0.71,-0.80,0.34,-1.16,0.18,-0.79,-0.92,0.17,0.02
"ex1541",-0.41,1.36,1.12,2.25,5.51,5.63,6.25,3.42,2.91,3.88,1.61,1.70,2.37,-0.79,0.02,1.63,0.76,0.47,0.36,1.25,-0.48,1.76,-1.70,0.38,-0.32,-0.55,0.73,0.17,-0.52,-1.36,1.41,0.51,-0.17,-0.38,0.24
"ex1542",0.52,0.11,-1.12,1.07,-0.15,-0.06,2.69,2.11,3.06,4.66,5.80,4.89,6.90,2.69,1.97,0.61,1.67,0.45,0.25,-0.12,-0.67,1.15,0.75,0.85,-0.31,1.09,-0.02,-0.18,1.10,-1.42,0.23,0.06,0.85,-0.53,1.80
"ex1543",-1.78,1.03,2.99,1.49,3.49,4.55,4.31,4.19,3.37,3.19,2.50,4.88,1.16,2.69,1.67,-0.86,-0.26,0.04,0.26,-0.69,-0.05,-0.11,0.04,-0.67,1.53,-0.82,-0.70,2.12,-0.62,-0.77,0.05,1.84,-0.83,-0.61,-0.72
"ex1544",1.57,-0.80,1.48,2.81,3.02,3.71,5.52,3.60,3.48,3.26,5.47,1.28,0.67,0.15,1.78,-0.77,-0.88,-1.15,0.65,0.48,-1.58,-0.30,0.86,-0.93,-2.43,-1.55,1.07,-2.00,-1.00,0.19,1.43,-0.06,0.68,-0.86,-0.16
"ex1545",-0.02,-0.86,-1.63,0.83,0.09,0.57,0.27,0.39,0.55,2.61,3.44,2.05,3.14,4.15,5.49,5.25,1.70,0.79,1.01,0.33,-0.21,-0.03,2.64,0.13,-0.96,-0.78,1.10,-0.14,0.39,1.09,1.38,-0.26,1.92,-0.05,0.09
"ex1546",-0.38,-1.25,0.48,2.36,3.04,3.55,2.85,4.81,5.45,2.96,3.69,3.30,1.10,0.54,0.64,0.86,-0.64,-0.53,1.53,-0.21,0.34,-3.06,-0.28,-0.35,-0.43,-0.15,0.10,0.36,-0.02,-1.56,0.02,0.08,-0.25,-0.46,-0.26
"ex1547",-0.74,-1.04,-0.96,1.88,2.10,3.42,3.21,2.04,2.25,1.36,0.88,2.43,4.60,4.34,5.81,3.51,2.96,-0.88,1.10,0.14,-1.44,0.40,0.61,0.39,1.00,-0.67,-0.41,0.72,0.16,1.26,1.96,0.26,0.09,1.04,-1.46
"ex1548",0.58,1.74,0.91,2.97,2.82,4.76,4.45,5.26,1.21,3.46,1.02,1.81,1.74,2.24,0.35,-0.40,1.53,0.07,0.49,0.82,-0.18,0.41,-1.44,-0.02,1.47,0.26,0.61,1.07,0.89,-0.85,0.28,0.15,-0.87,-0.85,-0.02
"ex1549",0.06,-0.43,0.97,0.58,0.49,3.39,1.85,1.69,1.51,1.59,2.65,2.92,2.48,1.26,3.97,4.46,1.63,0.67,1.01,2.34,-1.19,0.13,-1.71,0.84,0.14,-0.19,-0.45,1.16,0.04,-1.15,0.98,0.81,-0.83,-0.28,0.07
"ex1550",-1.88,2.00,-0.83,-0.23,0.08,-0.87,0.14,0.95,0.20,2.26,2.71,1.44,3.40,5.42,5.69,3.71,4.13,1.71,1.83,1.07,-1.63,1.63,-0.16,-1.85,0.34,-1.79,-0.02,0.16,1.47,-0.61,0.56,-0.85,0.04,-0.97,-0.20
"ex1551",-0.56,0.39,-0.82,1.35,0.32,2.37,0.71,1.66,1.73,0.74,2.10,3.03,2.19,3.54,3.02,2.30,4.64,2.67,2.02,-1.35,0.88,-1.15,-0.75,0.75,0.26,-0.15,-0.65,-0.77,-0.47,0.37,0.80,-1.11,0.41,0.31,0.23
"ex1552",-0.42,-0.10,0.71,-0.10,0.19,0.20,3.55,2.59,5.68,5.09,6.00,3.78,2.05,1.93,2.51,3.00,-0.50,1.03,1.41,-0.39,-1.06,0.03,1.55,-0.96,-0.23,-0.02,0.33,-0.43,-0.35,0.09,-0.32,-0.69,0.20,0.73,0.90
"ex1553",1.51,1.04,-0.32,0.31,1.49,-0.61,1.03,1.68,1.20,1.88,5.65,3.83,5.53,3.02,4.62,3.33,1.17,1.52,0.23,1.53,1.25,-1.62,-0.26,-0.64,0.97,1.59,-0.63,-1.28,1.52,-0.74,-1.10,-1.04,1.03,1.64,0.84
"ex1554",0.35,1.45,0.24,1.91,1.86,3.68,2.22,3.81,3.08,4.43,4.79,4.69,2.93,2.99,1.34,-1.16,-1.19,-0.63,0.16,0.86,-0.63,-0.21,0.95,-0.92,-0.76,-0.36,0.13,0.85,-0.69,0.30,-1.20,-1.87,-0.60,-1.14,-1.27
"ex1555",-0.63,1.11,2.17,2.20,2.29,6.91,5.30,5.31,1.97,4.29,3.26,2.66,2.40,1.42,0.88,0.71,-0.90,-0.84,0.01,-0.02,-0.09,-1.17,-0.29,-0.76,0.14,1.36,-2.00,-1.46,-0.33,0.49,-1.38,-1.47,1.01,-1.62,-0.14
"ex1556",0.66,0.33,2.19,2.13,3.43,4.60,6.06,5.18,3.87,2.83,3.79,3.10,1.22,-0.85,0.76,0.47,-0.05,1.02,1.82,1.11,0.68,0.03,2.44,0.88,1.48,-1.68,-0.95,-1.80,-0.95,1.10,-0.54,0.80,-1.46,-0.49,-0.28
"ex1557",-0.45,-0.20,0.27,2.13,2.38,0.51,3.58,5.04,4.31,3.35,2.97,2.48,1.63,2.04,-0.38,-0.49,-1.09,0.08,0.41,-0.71,0.96,0.26,0.27,-0.57,-0.28,-1.98,0.35,-0.48,0.11,-0.67,0.27,-0.76,0.59,-0.70,-0.20
"ex1558",-0.97,0.16,0.87,0.82,3.22,4.41,4.96,3.07,4.42,2.63,5.39,1.89,1.63,1.22,-0.82,-0.41,0.43,-0.31,0.59,0.79,0.30,0.93,0.98,0.37,-1.09,-0.40,0.70,1.40,-1.33,0.63,1.97,-1.97,1.20,0.59,-0.40
"ex1559",-0.52,-0.59,0.47,0.44,0.04,2.44,2.96,3.71,3.94,2.79,4.70,2.97,1.41,2.30,1.24,0.55,0.42,-0.72,0.88,1.37,-0.22,0.30,1.51,-1.34,-1.08,-1.89,0.03,-2.56,-1.03,1.68,-0.45,-0.27,-0.13,1.02,-1.16
"ex1560",2.11,0.49,1.13,4.58,4.47,4.31,5.08,3.84,5.58,2.32,2.02,0.78,1.18,1.00,2.50,-0.33,1.88,0.38,0.29,0.30,-0.24,1.44,-0.96,-0.03,-1.40,0.87,0.93,0.04,-0.90,-0.96,0.86,1.33,1.55,-0.11,-1.64
"ex1561",-0.29,1.02,-1.10,-3.27,-1.45,-0.22,1.09,1.80,2.50,5.25,3.36,3.37,4.31,3.86,5.30,3.47,2.80,1.80,-0.31,-0.06,0.24,0.08,0.18,0.50,0.52,-1.10,-0.71,0.50,0.16,2.24,-0.28,-0.77,0.63,0.20,-0.50
"ex1562",0.56,0.11,0.56,0.46,3.24,5.49,6.56,4.29,3.49,2.41,2.60,2.84,0.31,1.26,1.78,2.18,0.22,2.22,1.59,-0.22,-1.52,-0.50,-1.53,0.62,0.01,-1.11,2.59,-0.11,0.58,1.84,1.23,0.34,0.41,0.50,1.29
"ex1563",0.37,-0.36,1.07,2.15,-0.31,-1.03,1.92,-0.77,2.75,0.05,1.82,1.92,3.31,2.80,4.84,4.87,4.17,3.53,1.76,0.67,0.31,-0.50,1.54,1.39,1.18,-0.33,-0.12,0.45,0.46,-1.29,-0.44,0.12,1.50,1.37,1.89
"ex1564",-0.88,0.13,-1.26,-1.34,0.39,1.32,1.86,3.07,2.38,4.88,5.46,3.64,4.88,4.23,1.58,0.62,0.01,-0.73,-0.61,0.58,1.00,0.69,0.66,0.66,0.08,0.08,1.23,-0.53,1.65,-1.00,0.45,0.83,0.08,-1.67,-0.08
"ex1565",1.28,0.61,3.42,3.85,4.50,3.69,4.97,5.09,3.46,2.84,2.97,-1.54,2.52,0.64,1.63,1.09,2.68,-0.18,1.01,-1.24,-0.11,1.25,0.08,0.70,-0.43,1.82,0.56,-0.33,0.90,1.62,1.78,0.93,1.24,-0.06,-0.77
"ex1566",-0.12,1.86,1.77,4.21,3.61,2.95,5.34,3.52,3.84,1.53,1.13,0.99,0.49,-1.67,0.90,-0.99,0.02,-0.17,0.17,-1.12,-1.08,0.59,-0.10,-0.76,0.11,-1.29,2.38,1.38,1.94,-0.30,0.85,0.77,2.69,2.06,-0.33
"ex1567",0.29,0.26,2.58,1.62,2.19,4.59,5.76,4.93,4.16,3.11,2.01,0.89,2.27,1.59,1.53,-0.16,1.24,-1.02,-0.56,-1.23,0.41,0.25,0.88,0.60,-0.26,0.61,-0.26,0.53,0.18,-0.02,-0.69,-0.11,1.03,-0.27,-0.98
"ex1568",0.24,-0.48,2.16,2.71,4.48,4.40,6.10,5.01,4.13,2.74,2.71,0.66,0.17,0.74,-0.35,1.32,0.12,-0.04,0.24,-0.18,-0.26,0.57,-0.39,0.23,-1.59,-0.85,0.05,1.13,0.29,-0.64,-2.17,-1.21,-0.52,-1.06,-1.00
"ex1569",0.67,1.11,0.29,1.58,2.68,0.55,0.94,1.80,3.30,1.56,1.72,1.82,2.44,1.70,0.56,2.59,2.97,1.59,2.20,1.22,-0.62,-0.10,-1.50,-0.71,1.88,-0.20,0.12,-0.10,0.57,-0.35,-1.02,-0.88,-0.56,0.48,0.72
"ex1570",0.43,-0.57,0.12,-1.19,0.87,-0.27,-1.15,-0.33,-1.57,1.25,1.81,3.37,3.84,4.63,6.80,3.80,3.86,3.33,1.48,2.50,1.96,0.38,-0.47,-0.36,0.20,0.94,-0.47,0.77,-0.56,0.73,-3.02,1.08,-0.27,0.73,-0.89
"ex1571",0.37,0.46,0.56,0.95,-0.37,-0.10,1.79,0.86,1.11,2.01,2.94,3.40,4.32,4.07,5.11,4.00,2.69,2.25,1.71,-1.05,0.45,0.32,-0.51,3.33,-0.25,-1.14,0.72,0.47,-1.70,-0.75,0.17,-0.01,0.98,0.33,0.61
"ex1572",0.06,-0.14,-0.04,-0.17,-1.01,0.33,0.74,1.64,4.15,2.35,5.66,5.44,6.13,3.63,4.12,4.28,2.65,1.58,-0.15,-1.60,-2.44,-0.70,1.55,0.02,0.03,-2.91,0.56,0.51,1.29,0.30,-0.56,2.18,0.81,-1.88,-0.04
"ex1573",1.30,-1.11,1.31,1.40,2.50,3.14,3.57,3.13,3.51,3.37,3.42,2.03,-0.53,3.31,1.98,-0.02,-1.01,-1.42,-0.64,-0.55,-0.03,0.58,-1.23,-0.36,-0.35,0.34,-1.47,-1.83,-0.61,-0.91,-1.10,1.50,-1.19,-1.00,-0.30
"ex1574",0.60,0.10,2.76,1.06,2.76,3.26,4.80,3.44,4.42,3.80,1.56,-0.19,1.27,0.22,3.34,-0.92,-0.72,0.60,0.06,-0.11,-0.53,-0.32,-0.57,1.06,-2.25,-1.16,-0.27,-0.04,0.52,0.33,-1.20,0.63,-0.14,-0.15,0.35
"ex1575",-0.67,-0.34,1.17,3.39,3.69,5.68,6.61,4.88,3.78,4.00,4.31,0.01,-1.30,1.05,-0.69,0.57,0.17,-1.79,-1.18,-0.57,-0.19,-0.74,0.06,0.52,0.55,0.83,0.84,-0.93,1.26,-1.21,-1.06,0.07,0.35,-0.84,0.09
"ex1576",-0.27,0.22,2.31,2.56,3.97,4.45,4.90,5.45,3.50,3.66,1.93,0.55,0.04,-0.95,-1.19,1.79,-0.37,1.32,1.11,0.20,-0.88,-0.04,0.97,-0.15,1.09,-0.36,-0.53,-0.84,-1.04,-1.29,-0.53,-2.39,0.34,-0.82,0.39
"ex1577",-0.18,0.94,0.62,2.18,2.64,2.77,3.69,3.83,4.87,2.47,4.11,1.44,1.73,1.34,-0.42,0.33,-0.32,-0.14,0.89,0.72,-0.98,1.16,1.46,0.86,-0.33,1.54,-0.11,-1.08,-1.39,-1.42,-0.21,-1.06,0.42,-1.38,-0.33
"ex1578",-1.31,0.21,0.92,0.02,2.32,1.39,2.23,3.07,1.03,0.37,2.68,1.83,1.84,2.44,1.95,3.25,2.02,1.24,2.99,-0.45,-0.18,1.39,-0.43,1.23,-0.38,-2.27,-0.07,-0.13,0.94,-0.89,-1.19,0.63,0.94,0.29,1.02
"ex1579",-1.65,0.94,0.58,0.97,4.71,3.06,6.25,6.01,3.16,1.43,2.36,2.27,-0.07,-0.21,0.71,0.17,-0.17,-1.31,0.75,0.87,-0.69,2.18,1.33,-0.69,-0.78,-0.87,0.26,0.56,0.07,0.46,-1.00,1.13,-1.39,1.25,-0.53
"ex1580",0.57,-0.08,0.18,0.51,3.52,-0.90,2.70,0.04,0.94,2.17,2.84,2.59,3.15,1.93,4.01,5.07,1.40,1.80,-0.61,0.04,-1.55,-0.47,0.48,0.86,-1.03,1.29,1.77,0.78,-0.60,-0.58,-0.89,-0.68,0.16,-0.27,0.55
"ex1581",-0.03,-0.86,1.53,2.21,2.92,4.10,4.06,4.21,4.20,0.45,2.47,3.23,-1.00,-0.44,2.57,0.48,1.01,-1.42,-0.72,-0.89,1.47,1.09,-1.09,0.63,1.56,1.30,0.59,0.82,-0.40,-0.17,1.07,-0.31,-0.52,1.07,1.07
"ex1582",-0.44,1.51,1.28,1.90,3.00,1.95,4.63,4.84,4.44,3.71,2.92,1.57,1.78,2.22,-0.20,-0.17,0.34,-0.27,3.40,0.93,-0.58,-2.68,0.83,-1.17,-0.87,0.63,0.42,-1.62,1.22,-0.30,-0.44,0.41,-0.46,-1.22,0.78
"ex1583",0.66,-0.19,0.01,1.44,4.98,5.30,5.19,2.46,2.06,2.08,2.86,1.49,1.62,1.44,1.50,1.48,-1.55,1.61,0.66,0.27,-1.42,-0.94,-0.69,0.08,1.42,2.24,-1.23,0.81,1.49,-0.97,-1.08,-0.47,-1.29,0.57,0.18
"ex1584",-1.33,1.34,-0.12,-1.18,0.45,1.56,2.30,3.05,3.34,4.53,5.18,4.81,3.23,3.64,2.27,1.87,1.75,-0.39,0.08,-1.09,-0.43,-0.43,-0.03,-0.02,0.07,-0.04,-0.75,0.87,0.81,-0.08,-0.13,-0.71,-0.25,0.07,0.11
"ex1585",-0.44,-0.91,-0.20,2.68,1.81,0.86,5.33,4.57,4.37,3.37,2.07,2.10,2.88,1.28,1.67,-0.87,-0.19,0.09,0.83,-0.23,-1.97,-0.47,0.52,0.78,-1.20,-0.49,0.61,2.01,1.03,-0.36,0.41,0.43,0.02,-1.29,0.94
"ex1586",-1.35,0.37,0.55,0.22,-0.34,-1.90,2.44,-1.02,1.63,2.33,2.61,5.71,3.94,5.27,5.58,4.34,5.50,1.95,1.09,2.71,-0.35,-1.37,-0.41,0.42,-0.76,0.69,1.35,0.37,0.53,1.17,-0.23,0.77,0.83,2.12,-0.63
"ex1587",-1.10,-0.32,-0.16,-0.81,-0.62,0.41,1.97,1.58,1.36,2.60,5.99,2.38,4.94,3.26,5.87,1.89,1.95,2.98,2.76,0.89,-0.12,0.85,0.43,1.42,1.37,-1.46,-1.26,1.17,0.50,0.11,1.73,-1.13,0.53,1.27,0.68
"ex1588",-0.75,-0.08,2.18,2.11,3.36,4.54,4.28,4.40,2.76,1.26,3.22,1.74,0.94,0.67,2.57,1.47,-0.02,0.13,1.71,-0.47,-0.49,0.98,0.21,1.03,-0.75,-0.94,-0.08,0.28,0.88,0.48,1.36,2.10,-1.50,0.73,1.27
"ex1589",-0.50,0.45,-1.60,2.33,-0.61,1.20,0.34,1.45,4.12,4.32,5.01,2.58,3.19,4.06,3.59,0.06,-0.03,2.19,-0.84,0.28,-0.60,0.28,1.34,-1.77,-1.84,-0.98,-0.91,0.37,1.93,0.45,-0.35,-0.00,1.04,0.37,-1.31
"ex1590",-1.23,-0.00,1.70,1.56,1.76,0.78,3.97,1.79,0.93,1.56,1.64,1.68,2.17,3.50,3.00,3.53,3.22,0.14,1.39,-0.49,0.76,-0.44,1.98,-1.26,-0.72,0.68,-2.48,0.12,0.43,-1.58,-0.34,0.95,-0.78,-0.01,1.63
"ex1591",-1.18,1.42,1.49,1.40,1.24,5.43,2.42,1.52,3.81,3.62,2.21,0.32,0.57,3.89,1.51,2.08,0.68,0.77,-0.54,1.01,-0.01,0.23,0.37,-0.68,-0.31,0.14,-0.80,-0.22,2.29,-0.00,0.97,-1.79,-2.44,1.18,-1.35
"ex1592",1.34,1.51,2.56,4.48,2.85,5.25,5.76,1.52,3.42,4.25,0.96,1.05,0.22,-0.45,1.39,1.52,0.07,0.42,2.22,0.57,1.25,1.08,0.42,0.53,0.21,-0.63,1.22,-0.01,-1.78,0.42,0.71,1.65,0.18,-0.03,-0.39
"ex1593",1.07,-1.30,-1.32,-1.06,-1.55,1.96,1.35,1.15,0.51,4.56,4.91,3.65,3.99,4.70,4.36,1.92,2.00,1.22,0.34,-0.01,-1.27,0.92,-0.20,-1.48,1.42,0.45,0.33,0.56,0.52,1.47,1.08,1.00,2.15,0.12,-0.43
"ex1594",-0.71,0.16,-0.25,1.04,0.30,3.15,4.07,3.45,4.54,4.82,4.97,4.94,4.18,2.07,1.42,0.89,0.41,0.23,-0.27,1.13,-0.79,0.33,-1.51,0.01,-1.25,0.32,0.21,-1.69,0.80,-2.24,0.12,-2.23,0.37,-1.10,-0.42
"ex1595",0.48,-1.06,-0.10,-0.39,-0.85,-0.98,1.16,2.93,0.24,2.01,4.41,3.96,4.04,3.97,2.77,0.97,0.40,1.39,2.44,1.94,1.44,2.22,2.97,0.86,0.22,0.74,1.32,0.84,0.24,-0.18,-0.46,-0.72,-0.77,-0.43,0.43
"ex1596",-1.92,0.23,0.28,2.19,4.13,4.19,4.02,5.38,3.05,3.82,3.67,1.68,0.07,1.68,-0.69,0.19,0.67,2.00,-1.25,-0.34,0.18,-1.05,0.67,-0.40,-2.04,-0.64,0.13,0.62,0.72,1.09,0.03,-1.38,-2.09,-0.57,-0.46
"ex1597",0.04,0.79,0.72,-0.32,0.90,2.37,1.96,1.33,3.74,3.26,5.43,4.68,1.22,2.97,1.86,1.02,-0.31,0.76,-1.80,0.13,0.06,0.68,-0.77,1.34,-1.24,-0.56,-0.10,-1.47,0.23,-0.30,-0.30,-1.14,0.43,-1.39,-1.68
"ex1598",-0.24,-1.43,1.45,0.90,4.09,1.43,1.88,2.40,1.65,2.15,1.69,1.99,0.35,1.99,1.26,3.27,3.15,0.26,-1.40,0.66,1.81,0.21,-0.51,-0.27,0.85,-0.02,-1.17,-0.26,0.41,0.16,0.38,-2.37,-0.76,0.26,0.75
"ex1599",1.33,0.94,0.67,2.59,2.04,3.59,5.18,4.87,4.94,3.78,3.77,1.76,1.05,0.60,-0.77,0.32,0.55,0.35,0.58,1.47,-1.63,-1.05,1.23,-0.34,1.37,-0.65,0.00,-0.23,1.17,-0.10,-0.43,-0.27,0.37,-1.08,-0.21
"ex1600",0.15,1.57,3.41,1.85,0.64,2.46,3.31,5.03,4.70,5.33,6.07,4.25,3.71,2.89,1.88,0.71,-1.18,-1.00,0.21,-0.44,-0.18,-0.98,-0.77,0.09,-1.57,1.25,-0.37,0.16,1.21,-0.10,-1.87,0.81,0.28,1.83,-1.40
"ex1601",1.37,-0.26,-0.05,0.58,-1.06,1.26,0.48,3.37,2.61,3.71,4.30,3.99,3.27,2.06,0.02,0.56,-0.22,-0.60,0.36,-0.60,-1.06,1.44,0.37,-1.54,-2.48,0.41,1.38,0.20,0.90,-2.18,0.01,-0.66,0.65,0.66,0.23
"ex1602",0.35,1.92,1.10,-1.46,0.63,1.04,1.90,2.14,3.89,4.58,5.07,4.64,4.96,2.81,2.38,1.55,-0.01,0.00,0.64,1.07,1.36,0.06,0.66,0.70,-0.26,0.49,1.56,0.94,-0.09,-0.68,0.53,1.74,-0.81,0.93,-0.14
"ex1603",1.90,-0.57,0.07,-1.94,1.58,1.81,-0.13,2.80,4.75,3.67,6.43,5.59,1.66,4.26,1.43,1.91,1.48,0.59,1.66,0.60,0.78,1.66,0.94,-0.97,0.94,0.81,-1.03,0.22,0.84,-0.17,-1.21,0.37,0.45,-0.25,-1.18
"ex1604",0.21,0.85,1.27,0.87,1.87,2.33,3.28,3.73,4.75,4.75,2.84,2.31,1.25,1.52,1.28,0.16,-1.28,0.37,0.08,-0.04,-1.04,-1.31,0.80,0.01,-0.50,-1.24,-1.69,-0.83,1.19,-0.38,0.07,1.64,0.34,0.18,0.64
"ex1605",0.74,0.33,-1.20,0.51,-0.53,1.19,-0.15,1.05,1.09,3.89,3.75,5.33,4.04,4.23,3.13,5.01,1.01,1.52,1.52,-0.30,-0.95,0.19,-0.34,-0.01,-1.12,0.42,-1.44,-1.50,-1.11,0.07,-1.04,0.24,-1.01,-0.69,-0.98
"ex1606",-1.60,0.40,-0.71,0.23,1.15,-0.16,-1.03,-0.31,2.66,1.34,3.70,3.71,4.84,3.84,5.03,4.05,3.20,3.66,1.29,2.47,0.09,-0.03,0.74,-1.50,-1.69,0.75,-0.81,0.07,2.16,-0.48,-1.34,-0.06,1.52,1.53,-0.28
"ex1607",-1.08,1.55,0.39,2.61,2.41,4.39,5.62,3.86,3.03,1.73,1.05,2.48,-0.70,1.54,1.86,0.06,-0.13,-1.00,0.34,1.00,0.30,3.52,0.40,1.34,1.16,-0.38,1.08,0.37,1.35,1.31,-0.67,0.24,0.81,-0.16,-0.29
"ex1608",-0.63,1.46,0.79,0.22,-0.22,0.79,2.65,2.18,2.34,2.79,3.42,2.99,4.12,5.39,3.24,4.29,2.45,1.26,2.67,1.26,-2.70,1.01,0.03,1.63,-0.05,-1.49,-0.82,0.93,0.97,-1.02,0.13,1.31,-0.04,-0.39,-0.66
"ex1609",1.31,1.32,0.15,3.03,2.04,3.42,4.28,4.42,5.13,4.59,3.00,2.77,3.24,0.98,0.35,2.78,-0.22,-0.50,0.40,-1.30,-0.26,0.42,-0.22,0.40,-1.36,-0.27,1.08,-0.45,1.24,-0.41,0.19,2.23,1.54,0.03,0.86
"ex1610",1.15,0.68,1.22,2.29,0.41,4.59,4.24,4.33,3.70,4.06,3.04,2.66,2.21,1.95,2.26,0.50,0.37,0.59,-0.73,-0.32,1.28,-0.71,-1.22,-0.67,-2.71,0.04,1.50,0.43,0.25,0.66,0.10,0.35,0.99,-0.51,-0.04
"ex1611",0.77,1.57,1.77,2.26,3.07,4.41,6.33,4.50,3.27,3.44,1.61,0.74,0.25,-0.06,-0.04,1.26,1.05,-0.54,0.15,-0.90,0.38,0.28,0.17,0.75,0.59,-1.06,-0.06,1.08,-0.35,-1.02,0.47,-0.47,0.21,0.79,0.48
"ex1612",1.09,0.09,0.45,0.45,1.86,1.35,2.66,3.55,4.18,5.45,6.07,5.26,3.03,2.10,2.24,2.56,-1.40,-1.61,0.15,1.70,1.07,-1.83,0.85,-1.80,-0.32,-1.00,-0.61,0.18,-0.22,-0.85,-2.55,-0.06,0.34,0.71,-0.20
"ex1613",-0.75,-0.77,0.94,0.44,0.88,3.75,3.04,3.03,0.61,2.61,0.58,1.84,1.33,2.74,2.33,2.97,1.39,-0.01,-1.12,1.02,-0.78,1.10,-1.07,-0.13,0.18,-0.97,-1.78,-1.17,-1.79,0.22,-0.27,0.64,-0.77,0.52,-0.26
"ex1614",-0.24,0.19,0.99,1.40,1.21,2.63,3.12,2.69,3.13,4.54,3.56,3.11,2.30,2.23,0.72,0.07,-0.79,1.36,0.61,-0.18,0.45,-0.64,1.03,0.56,0.30,1.37,1.88,-0.33,-0.62,-0.75,-1.19,2.88,-0.14,0.01,-0.14
"ex1615",-0.40,-1.37,1.22,-1.95,0.92,-0.29,-0.79,0.66,0.63,3.08,1.23,2.59,4.54,5.19,5.74,6.23,2.40,3.64,2.83,0.98,0.16,0.89,-1.25,-0.26,-1.24,0.23,0.47,-0.04,1.28,-0.93,0.49,-0.37,0.60,-0.81,-0.48
"ex1616",0.63,-1.78,-0.15,-0.45,0.79,0.47,2.03,0.77,4.45,1.72,6.96,4.81,3.64,3.25,2.73,2.02,1.91,-0.17,-0.94,2.49,-0.94,-2.72,-0.24,-0.25,1.19,2.03,0.04,0.17,1.18,0.08,-1.16,1.57,0.41,0.02,1.17
"ex1617",0.63,-1.19,0.87,-0.19,0.40,1.02,1.99,2.52,6.60,5.67,5.88,3.86,4.23,1.65,1.59,2.56,1.73,-0.80,3.26,0.68,0.29,0.19,-0.62,-0.68,-0.31,0.02,-0.77,-0.89,-1.24,-1.14,0.14,0.32,-0.76,-0.96,0.45
"ex1618",-1.70,-0.47,-1.14,-0.00,-0.25,1.03,0.90,1.40,1.80,2.20,3.64,3.20,3.96,4.30,5.33,3.24,2.41,3.22,1.42,0.57,-1.23,0.69,-0.26,-0.47,-0.44,-0.92,-2.20,0.65,0.16,-0.96,-0.73,0.18,-0.33,-0.43,0.99
"ex1619",-0.29,1.64,0.22,0.52,-0.34,1.42,2.48,3.88,4.44,3.70,4.78,5.25,4.42,4.99,3.98,1.15,0.91,0.94,-1.41,0.07,0.37,-0.33,-1.05,1.28,1.13,-0.43,-2.13,0.61,1.04,0.50,1.23,0.57,2.14,0.48,-0.16
"ex1620",-0.44,1.50,0.15,3.25,4.66,4.55,6.08,3.89,3.39,1.64,1.99,1.36,0.13,0.21,-2.09,-0.23,-1.28,0.30,-1.10,0.52,-2.49,0.89,-0.24,-1.05,2.54,-0.38,-1.57,1.25,-1.28,1.46,-0.02,-1.57,-0.74,-0.03,-1.17
"ex1621",0.08,0.88,1.68,5.66,4.51,2.87,6.10,5.04,5.65,3.30,3.11,1.81,-0.00,0.20,-0.08,1.05,0.06,-0.34,0.47,1.26,-0.98,1.32,1.00,1.32,-0.27,-0.92,1.09,-0.75,-0.72,0.09,-0.38,1.23,-0.62,0.03,-0.84
"ex1622",-0.54,-0.63,-0.44,-2.04,1.56,1.23,1.94,1.42,2.20,4.87,5.98,2.92,4.39,2.56,1.17,2.75,0.68,0.21,-0.89,1.00,-1.55,0.35,0.06,-0.22,0.45,0.63,0.27,1.03,0.34,0.53,0.37,1.03,-0.42,0.87,-1.45
"ex1623",0.12,1.26,1.77,1.43,4.43,3.22,5.02,7.02,1.62,4.41,3.97,1.44,2.41,1.18,-1.38,0.59,-0.41,-0.35,0.59,0.73,0.73,0.67,1.37,1.06,1.61,-0.73,1.05,0.80,-1.03,-1.13,-0.66,1.16,-0.76,-0.23,-1.77
"ex1624",-0.87,0.97,0.60,-0.94,-0.14,0.79,1.40,3.04,1.38,2.00,5.65,2.67,5.96,4.73,4.96,2.27,2.73,1.27,2.16,1.20,-2.75,-0.71,-0.69,1.04,0.81,-0.47,1.08,0.27,0.06,1.15,-1.81,-1.68,-1.25,0.96,-0.07
"ex1625",0.87,0.07,0.53,2.01,3.92,3.90,6.07,3.87,2.44,2.15,1.87,2.19,0.46,1.42,3.05,-0.42,0.57,0.59,3.38,1.07,-1.78,0.51,-0.64,0.63,0.25,-1.08,-0.64,1.32,-1.04,-1.25,-0.19,-0.68,0.70,0.07,-0.26
"ex1626",0.64,0.61,0.37,-0.32,-0.19,-1.17,-0.10,1.09,0.30,1.06,2.66,3.25,3.97,4.97,6.82,5.35,2.48,3.57,2.10,1.15,1.95,0.11,-0.43,0.83,-0.59,-0.71,-1.11,0.62,-0.73,0.47,-0.12,0.78,-1.04,-0.97,-0.25
"ex1627",0.17,1.08,0.64,-0.51,-1.73,0.57,2.28,3.07,4.49,5.07,5.57,3.83,4.50,3.84,1.53,1.33,1.49,-0.91,-0.88,2.27,-0.26,-1.05,2.04,-0.47,-0.36,-0.34,-0.22,0.89,-0.47,0.37,-1.32,0.81,-0.25,0.81,1.72
"ex1628",1.71,1.72,1.93,0.86,2.65,5.34,4.94,6.35,5.13,4.68,3.54,2.14,0.82,-0.59,0.81,0.49,0.85,0.33,-0.01,1.50,-0.24,0.77,0.53,0.12,-0.13,-1.09,0.61,0.59,-0.85,0.21,-1.91,0.24,-1.07,1.17,-1.23
"ex1629",1.02,0.71,0.19,0.82,1.71,3.48,4.36,3.79,4.00,1.09,5.05,3.99,1.86,0.72,0.47,1.06,0.68,-0.00,0.59,-1.60,-2.78,-0.02,-0.64,0.06,-1.52,0.21,0.16,1.12,-0.97,1.03,0.69,1.20,-0.84,-0.67,0.05
"ex1630",-1.52,0.25,-0.21,2.08,2.81,2.37,4.09,4.63,5.66,2.30,3.96,0.74,1.29,1.28,0.39,-0.18,-1.09,0.15,-0.69,-0.90,1.21,0.97,-0.58,0.67,1.11,0.13,0.92,-0.27,0.53,0.42,-1.29,0.84,0.55,1.08,1.36
"ex1631",-0.58,-0.59,0.80,1.22,2.23,-0.11,1.44,0.06,-0.21,0.08,2.59,4.12,4.35,6.62,6.37,5.33,3.56,4.16,2.30,1.64,0.25,-0.07,-0.67,0.85,-0.72,-1.86,0.72,1.47,-0.06,-1.23,-1.56,1.15,0.18,-0.07,1.15
"ex1632",-0.38,0.20,1.97,2.13,-0.07,1.28,1.62,2.39,2.41,1.39,3.07,0.08,2.73,4.28,3.36,2.73,0.93,2.50,0.32,-1.33,-1.64,0.39,1.27,0.69,-0.72,-0.57,-0.48,-0.71,0.71,1.99,-1.38,1.10,-0.56,-0.85,-1.67
"ex1633",-1.93,1.81,1.73,1.37,4.41,5.55,3.99,4.17,1.32,2.18,-0.24,1.17,1.30,0.16,0.95,1.72,0.95,2.40,0.69,-0.24,-0.21,0.16,1.48,0.04,1.78,1.35,0.67,0.59,-0.83,-0.01,0.44,-0.13,-0.88,1.37,0.46
"ex1634",-1.66,0.81,0.64,1.35,1.76,1.63,1.23,4.73,3.62,3.90,3.93,3.19,3.07,2.21,2.02,2.43,0.70,0.88,1.68,0.68,-0.17,0.21,-1.01,-2.11,-0.66,0.73,0.65,0.89,2.08,1.56,-0.34,0.81,-2.22,0.15,0.13
"ex1635",0.28,1.61,-0.26,1.10,1.00,1.46,2.52,2.73,4.38,5.47,6.65,3.82,2.45,2.55,1.47,1.21,0.59,-0.17,-1.15,0.30,-1.89,-0.38,2.22,-0.53,0.79,0.66,0.87,-0.75,-0.44,-1.20,-1.03,-2.35,1.12,-0.53,-0.47
"ex1636",-0.83,0.41,-0.18,1.91,0.93,2.14,1.37,2.72,4.47,5.09,5.39,4.94,3.83,3.71,1.22,0.08,0.60,0.86,0.45,0.44,-0.34,0.79,-0.52,-0.13,0.04,-0.11,-1.21,-1.23,-0.13,0.53,-0.98,-0.04,0.22,0.17,-1.04
"ex1637",0.92,0.68,0.14,-0.47,0.36,1.47,3.02,-0.22,3.66,5.73,5.64,4.11,3.75,3.17,2.61,1.69,1.26,-0.07,1.18,2.56,-0.72,1.30,0.51,-0.15,0.13,0.70,0.39,-1.72,0.72,-0.01,0.98,-1.58,-0.20,2.19,0.88
"ex1638",0.15,-0.84,-0.99,0.82,-1.01,-1.25,2.00,1.90,2.79,5.48,5.05,4.07,2.15,3.92,5.12,1.43,1.08,-1.83,0.66,0.18,0.99,0.20,-1.28,0.88,-0.37,-0.89,0.89,1.49,0.25,0.04,-0.27,-1.17,-1.03,-0.99,-1.26
"ex1639",0.19,-1.54,0.76,0.76,-0.25,3.15,2.86,4.37,3.27,5.30,5.37,3.53,2.35,3.04,0.54,1.82,-1.35,1.54,0.06,-1.12,1.51,-1.08,0.79,-0.64,-0.48,-0.69,-0.52,0.73,-0.88,1.86,0.55,0.13,0.10,-0.40,0.40
"ex1640",-0.18,0.10,0.78,0.62,1.45,0.70,1.87,-2.15,0.76,1.26,1.33,3.01,4.01,5.66,6.31,6.37,3.43,2.94,2.60,1.00,-0.32,0.98,0.58,-1.42,0.66,0.16,-0.10,-0.62,-1.34,-1.17,0.16,0.11,-0.94,2.26,-1.19
"ex1641",0.83,-1.09,1.85,0.28,1.60,2.32,3.76,3.79,2.40,3.98,3.18,1.24,-0.17,-0.07,0.47,2.42,-0.00,-0.68,1.26,0.90,-2.85,-0.78,-0.46,-0.04,-0.88,1.75,1.61,-0.32,1.68,-2.00,-0.62,-0.52,0.46,-1.07,0.57
"ex1642",0.16,1.38,-0.42,-1.24,0.19,-1.45,1.11,0.68,0.07,3.41,3.31,1.97,5.48,4.85,6.16,4.38,4.18,3.46,1.93,0.68,1.41,-0.41,0.24,0.90,-0.97,-0.43,0.81,0.42,0.47,-1.21,0.38,0.30,-0.50,0.74,-0.88
"ex1643",-0.55,-0.77,2.89,3.26,3.35,3.33,5.21,4.36,5.37,4.00,3.68,2.55,1.00,0.81,1.60,-1.16,0.52,0.79,0.15,0.83,-0.99,1.28,0.22,0.29,-0.73,-0.05,0.98,0.21,1.61,0.52,-0.21,-0.45,1.36,1.29,-1.29
"ex1644",-1.74,-0.03,0.37,-0.42,1.12,-0.38,0.03,2.52,2.11,3.36,2.98,5.58,3.02,2.98,2.27,2.48,1.76,1.71,-1.51,-0.42,0.52,-0.92,-0.50,0.15,-0.06,0.67,0.09,0.27,-1.25,-0.47,1.55,0.29,-0.59,0.47,0.01
"ex1645",0.29,0.79,0.34,-1.17,0.27,1.20,1.24,2.39,2.77,6.78,5.76,4.46,5.19,6.17,2.45,0.83,2.35,1.01,1.24,-3.03,1.08,1.49,1.52,-0.51,-0.46,0.21,-1.05,-0.72,-0.09,1.74,-0.45,-0.71,0.98,-0.57,-1.97
"ex1646",-1.17,-0.34,0.36,0.09,-0.99,0.81,0.67,1.60,2.71,1.78,4.60,3.80,6.02,1.53,4.31,2.96,1.68,0.48,1.34,1.30,-1.30,-1.29,-0.09,-0.91,0.80,1.67,-0.57,1.23,1.60,-0.94,1.64,0.21,0.70,0.58,-0.57
"ex1647",1.74,0.42,-0.16,0.15,0.29,1.37,4.11,1.02,4.16,4.26,6.03,3.39,6.15,2.66,2.80,1.14,1.17,0.18,0.91,-1.33,-1.06,-0.21,0.48,0.67,-1.85,0.32,1.05,0.44,-1.30,-1.59,-0.50,0.31,-0.21,-0.07,0.54
"ex1648",-1.07,-1.03,-0.02,-0.60,0.05,0.01,1.30,2.91,1.55,4.16,4.56,5.02,3.71,2.52,1.96,1.94,0.30,0.53,1.41,-0.12,0.11,1.28,0.16,-0.60,-0.39,-0.37,-0.34,2.59,0.02,-1.31,-0.60,0.61,-0.74,-1.38,0.51
"ex1649",-1.98,-0.59,-2.13,-0.64,-1.56,-1.68,0.80,1.17,-0.01,-0.11,4.50,4.89,4.39,4.59,5.43,4.13,3.48,3.50,2.03,0.08,0.10,-0.87,2.24,-1.81,-0.01,1.36,0.29,-1.25,0.22,1.36,0.54,-0.26,1.14,0.08,-0.79
"ex1650",-0.30,-0.65,-0.22,1.09,0.14,0.10,1.31,1.25,1.82,1.54,2.35,2.93,4.33,4.34,5.35,4.35,2.21,1.55,0.01,1.11,-0.33,0.84,1.18,0.06,-0.22,-2.57,0.62,-0.10,0.54,1.08,-0.10,0.80,1.14,0.13,0.52
"ex1651",1.20,0.81,-1.10,0.09,0.52,3.43,0.12,2.52,-0.04,1.02,1.19,4.49,2.74,3.95,4.89,5.76,1.02,0.90,2.12,0.69,1.38,-0.85,0.54,0.08,-0.52,-1.44,0.35,3.50,0.60,0.00,0.69,-0.84,0.16,0.81,-0.33
"ex1652",1.51,-0.23,0.65,1.43,0.49,1.38,-0.12,3.42,1.44,2.36,2.16,0.80,1.16,3.53,5.48,3.98,4.27,2.78,1.23,0.64,0.56,0.88,-0.44,-1.39,-1.25,1.76,0.92,-0.62,1.36,1.92,1.29,-0.27,-0.16,1.05,1.50
"ex1653",1.15,-1.45,0.88,1.48,5.22,4.35,5.78,6.29,4.07,1.72,2.23,2.04,1.76,0.95,0.27,-1.67,-0.33,-0.24,-0.26,1.25,-0.33,1.09,-0.58,-0.62,-0.40,-0.14,0.14,-0.16,-0.83,-0.81,-0.11,0.73,1.04,-0.78,0.28
"ex1654",0.23,0.67,2.30,2.90,0.19,2.16,6.40,3.72,4.86,1.08,3.24,3.49,2.88,-0.74,1.67,-0.03,1.18,-0.59,1.67,2.00,-0.39,-1.20,-0.37,1.55,-0.46,0.44,-0.17,-0.85,1.10,-1.65,0.49,-0.09,-1.19,-1.77,0.23
"ex1655",-0.10,-0.17,0.54,0.97,1.15,2.48,3.32,4.79,5.10,3.98,2.29,3.28,4.58,4.03,0.48,0.87,0.34,-0.45,-0.08,-0.52,-1.27,-0.08,0.31,-0.55,0.59,-0.17,-0.49,0.01,0.03,-0.77,-0.08,-0.55,1.94,0.83,1.03
"ex1656",0.55,-2.33,2.36,3.10,0.95,2.49,3.48,4.24,4.58,5.20,5.43,4.49,2.09,2.07,1.79,0.54,0.30,-0.91,1.27,-1.32,0.27,-0.16,0.81,-0.51,0.20,-0.38,0.29,-0.75,0.04,-0.89,0.01,0.18,-0.20,1.10,-0.54
"ex1657",-1.23,0.72,-0.23,-0.17,0.29,1.89,4.15,4.27,4.28,4.48,5.26,3.41,4.14,2.79,2.09,-0.48,-1.28,0.76,0.17,-0.39,-0.59,0.06,1.81,-1.50,0.25,1.29,-2.07,0.40,0.81,1.23,1.80,0.90,1.48,1.28,-0.32
"ex1658",-1.35,-0.63,1.89,-0.96,-0.38,1.58,3.73,3.59,5.65,5.03,6.58,3.39,4.03,3.75,3.62,2.45,-0.04,1.34,-0.32,1.03,-0.76,-0.18,0.67,2.06,1.27,-0.38,0.05,1.20,1.44,-0.41,-0.05,-0.47,-1.65,-0.99,1.84
"ex1659",-0.93,1.73,1.29,0.93,3.06,2.64,5.15,3.41,4.61,3.47,4.96,1.99,2.13,1.28,2.08,1.57,-0.46,0.22,-0.74,-2.15,1.40,-0.98,0.69,0.95,-1.43,0.09,1.03,-1.34,0.61,-1.19,0.04,0.24,-0.38,0.41,0.57
"ex1660",1.04,-0.07,0.21,-1.07,1.22,1.77,0.54,1.91,1.44,4.86,4.44,3.68,4.21,2.44,3.64,4.15,0.96,0.91,-0.07,1.00,-0.77,-1.89,-0.06,0.62,0.49,0.09,-0.53,0.37,-1.18,0.52,-1.30,0.55,0.77,-0.80,0.54
"ex1661",0.71,-0.38,0.17,-0.09,1.87,0.42,0.55,1.08,1.68,2.30,0.51,2.09,1.58,4.26,2.58,3.58,4.89,3.06,1.93,2.58,0.74,-0.04,0.07,1.88,-1.39,-0.77,1.26,-1.07,-0.21,0.58,1.77,-0.07,-0.34,-0.38,0.05
"ex1662",-0.50,2.03,2.11,2.66,1.10,3.74,4.38,2.72,3.71,3.17,2.70,2.41,0.95,0.09,2.21,2.33,2.07,1.61,-0.83,-0.64,0.78,1.04,-0.65,0.45,0.28,0.41,1.83,-0.58,2.06,-1.60,-1.86,0.07,-0.46,-1.14,0.43
"ex1663",0.28,1.16,0.50,0.78,1.51,1.85,3.91,3.72,2.45,3.86,5.57,4.73,1.64,2.47,1.49,-0.32,0.77,-0.50,1.51,1.60,-0.92,1.63,0.73,-0.23,-0.73,-0.19,-1.53,0.34,-0.70,0.89,-0.54,-0.61,-0.01,0.71,-0.22
"ex1664",1.01,-0.19,0.84,1.89,2.89,4.12,4.57,3.84,3.31,1.37,0.30,0.05,2.94,2.45,2.17,1.38,0.44,0.86,-0.24,1.53,-1.11,0.13,-0.64,0.33,-0.10,0.65,-0.59,-0.64,-1.22,-0.90,-1.65,0.56,-0.79,-0.80,1.49
"ex1665",1.76,1.16,-0.12,0.72,1.13,2.23,3.46,4.60,5.42,4.69,5.51,3.38,1.40,2.17,3.81,1.80,-0.62,0.53,-0.72,-1.28,1.79,0.69,0.84,2.00,0.56,0.15,1.43,-0.64,0.67,-0.92,0.06,-1.07,0.02,0.17,1.26
"ex1666",0.77,1.57,0.39,0.36,-2.14,0.61,1.55,2.27,1.78,2.87,5.11,3.32,2.62,4.85,1.56,2.70,1.56,0.39,2.81,-1.35,-0.23,-0.82,-0.18,0.04,-1.88,-0.16,0.25,-1.22,0.57,-0.76,1.16,0.62,0.47,-0.37,-0.30
"ex1667",-0.15,2.55,2.49,1.56,5.76,3.06,5.96,3.99,3.10,3.92,0.86,0.52,-0.47,-0.20,1.77,1.48,0.88,-0.87,-0.29,-0.20,-0.55,-0.83,0.41,0.75,-1.02,-0.34,0.28,1.90,0.04,0.38,0.15,1.77,-0.52,0.54,-0.82
"ex1668",-0.65,1.07,0.73,-1.72,-1.14,0.47,-0.28,2.75,0.33,0.30,2.11,2.14,4.37,4.68,4.53,5.16,3.44,2.25,1.67,2.59,0.08,0.48,-0.37,0.58,-2.80,-0.21,0.81,0.81,-0.06,-1.78,-1.48,1.74,0.05,-0.27,0.21
"ex1669",1.46,1.05,1.36,1.26,1.16,3.61,3.20,3.34,5.11,6.35,3.76,5.44,3.13,2.78,0.45,1.33,-0.60,0.29,-0.48,-1.79,0.14,-1.41,1.81,0.15,0.01,-0.55,0.47,-0.42,-1.75,-0.08,-1.45,0.50,0.81,0.69,-0.83
"ex1670",-1.18,-0.41,0.56,-0.68,3.23,1.88,1.19,1.52,1.03,1.74,3.93,4.05,2.36,3.97,5.88,2.85,2.34,0.90,1.31,0.02,-1.40,-1.82,-1.03,-0.08,0.89,0.64,-1.40,-1.48,-0.21,0.26,1.26,-1.68,1.83,-0.03,0.38
"ex1671",-0.16,-0.69,-0.36,-0.03,0.84,1.13,0.83,3.59,4.34,3.77,6.18,4.37,5.50,3.50,2.16,0.24,-0.80,-1.44,-0.96,0.52,-0.67,-1.94,0.80,-1.15,1.29,1.03,2.59,1.40,0.26,0.47,-0.26,0.73,0.70,-0.50,-0.76
"ex1672",0.72,0.35,1.18,5.68,4.02,4.32,6.43,4.49,4.84,4.50,3.21,2.40,1.11,0.69,2.86,1.53,-2.43,-0.91,-0.52,-0.43,-0.91,0.99,-0.45,-0.83,0.06,-0.76,1.49,1.32,0.81,-0.33,-0.81,-0.53,0.20,0.02,-1.18
"ex1673",2.05,1.39,1.54,1.68,2.34,1.71,3.90,4.28,5.80,2.05,3.59,1.65,-0.63,0.01,0.71,0.18,-0.17,-1.28,-2.15,-1.61,1.02,1.38,0.10,0.41,0.14,-2.25,0.23,0.42,-1.06,0.01,-0.33,-0.09,0.68,-0.39,2.04
"ex1674",-1.72,0.86,0.31,-0.15,-1.05,2.32,2.64,4.92,4.78,5.74,5.58,7.46,3.44,2.87,2.38,-0.20,0.73,-1.84,1.69,0.59,-0.34,0.26,0.40,1.77,0.56,0.97,1.43,0.91,1.66,0.42,-0.48,-1.63,-1.23,-0.29,0.99
"ex1675",-0.10,1.92,1.15,4.21,3.73,5.03,6.02,3.14,4.32,2.46,2.47,1.17,0.52,0.56,0.31,1.41,-0.95,-0.50,1.27,-1.30,0.40,-0.73,1.00,-1.09,0.32,0.19,0.15,-0.65,-1.04,0.50,-0.70,-0.63,1.63,0.30,-0.20
"ex1676",-1.17,1.80,1.86,2.26,4.55,5.31,5.73,5.96,4.05,4.63,2.50,0.23,1.18,-2.39,0.20,-1.56,0.36,0.89,-0.67,-0.19,-0.11,-1.13,-1.46,0.66,-0.45,-1.67,0.33,-0.65,-0.75,-2.00,1.09,-1.71,-0.32,0.06,0.96
"ex1677",0.07,-0.03,1.08,0.62,0.49,-0.46,2.52,0.97,1.49,1.02,3.28,3.21,4.46,4.65,5.67,5.45,2.74,3.73,0.98,0.57,0.60,-0.15,-0.27,0.49,-1.44,0.09,1.43,0.03,0.02,1.44,0.06,-0.65,-1.97,2.70,0.28
"ex1678",-0.36,1.16,-0.48,-0.29,-0.10,2.65,1.47,1.94,-1.32,1.51,3.27,1.71,4.04,5.19,5.10,4.60,2.69,2.83,2.22,0.38,-0.18,1.22,0.05,1.29,0.19,-0.76,-0.05,2.33,0.82,0.26,0.53,0.82,-1.08,-1.12,-0.94
"ex1679",-0.08,-0.43,0.51,-0.52,-0.12,0.23,3.38,2.87,4.13,4.05,5.07,5.80,3.30,2.36,2.27,-0.15,-0.42,0.50,0.30,0.64,0.50,-0.36,1.06,1.73,0.18,-0.08,-0.00,0.62,-0.26,-0.93,1.16,-0.02,-1.70,1.20,0.27
"ex1680",-0.89,0.32,-0.07,-0.42,0.72,1.04,-1.28,-0.16,-0.79,2.19,2.86,3.29,3.09,2.24,6.69,3.60,3.65,3.67,1.32,0.94,-0.49,-0.26,1.01,-0.03,0.85,2.29,0.40,-0.10,0.13,0.10,0.75,2.03,2.09,0.33,1.11
"ex1681",-1.46,-1.08,-0.63,1.59,2.28,5.12,2.82,4.37,2.56,2.86,3.21,1.81,0.28,1.68,-1.17,-0.74,-0.31,1.36,0.63,-0.64,0.45,0.12,0.61,0.04,-0.39,1.26,0.80,-1.25,-0.97,-1.35,2.16,-0.36,-0.45,0.17,-0.45
"ex1682",1.94,1.21,0.33,-0.89,1.54,1.11,1.39,1.37,-1.63,2.01,1.16,1.89,3.77,5.61,3.66,4.75,2.46,2.99,2.34,1.93,-1.88,0.24,0.42,0.40,-0.39,0.28,1.61,-0.90,-2.83,-0.45,1.88,0.83,-0.93,-2.16,0.58
"ex1683",0.03,-0.73,1.81,1.47,1.52,3.91,5.50,3.09,3.78,3.36,4.62,2.23,2.15,-0.00,1.10,-0.40,-0.65,-0.53,0.69,1.35,-1.09,0.42,-0.79,-0.86,-1.41,0.44,0.99,-1.53,-0.89,-0.39,-0.19,1.79,-0.47,0.23,-0.17
"ex1684",1.34,0.07,-0.16,2.57,2.89,4.56,5.07,1.18,3.20,2.12,3.88,1.85,1.51,0.30,1.91,1.47,2.02,1.00,1.38,-1.27,-0.51,-0.82,-0.72,-1.91,-0.16,-0.33,0.34,-1.27,-1.16,-0.87,-1.99,-0.37,0.16,-0.73,-0.80
"ex1685",-0.80,0.69,-0.42,1.24,1.55,3.43,2.23,2.30,1.35,2.03,2.37,2.75,3.15,4.38,5.24,5.82,2.72,1.70,-0.00,1.68,0.75,1.05,-1.27,-0.02,0.71,-0.41,-1.09,0.40,0.69,-1.49,0.12,0.02,-0.06,-1.06,-0.84
"ex1686",1.16,-0.16,-0.81,-0.27,0.14,0.59,0.93,2.07,1.99,1.65,4.67,2.34,3.13,5.10,4.89,2.05,2.34,1.92,0.14,-0.29,0.04,-1.09,-0.40,-1.52,-1.57,1.50,-0.35,1.88,-0.72,-0.08,-0.33,-1.71,-0.17,0.15,-0.30
"ex1687",0.63,-0.92,-0.28,-1.44,-0.69,-1.06,0.73,-0.76,-0.48,1.10,3.12,4.70,2.19,3.53,5.96,5.47,2.32,3.53,1.22,1.63,-0.33,-1.20,0.36,1.48,0.21,0.09,-0.10,1.52,1.60,-1.05,-0.39,0.40,-1.12,-0.18,-0.28
"ex1688",-0.44,0.69,0.14,1.62,1.25,1.44,2.18,1.45,0.45,3.45,2.66,0.67,2.99,3.03,4.76,2.72,1.99,2.18,-0.05,-0.31,0.21,0.97,-0.93,-0.15,0.91,0.62,-1.98,0.61,1.24,1.91,-1.75,1.28,-0.29,1.77,0.51
"ex1689",0.36,1.48,0.53,3.17,2.12,1.61,4.34,4.14,1.65,3.06,1.38,1.45,-0.14,1.05,1.62,1.55,0.75,1.01,1.10,-0.34,0.51,0.49,-0.23,-0.16,0.84,-0.42,0.75,-0.45,-0.00,0.41,-0.39,1.38,-0.31,-1.81,-1.07
"ex1690",-0.98,0.55,0.34,1.81,1.28,2.15,4.57,5.07,5.95,3.39,3.72,2.87,2.08,0.27,0.87,0.13,0.03,-0.56,0.05,-2.58,0.97,0.41,-0.92,-0.17,0.99,-0.43,0.30,1.20,0.65,-0.32,0.02,2.39,-0.77,-0.01,1.37
"ex1691",-0.32,0.65,1.79,1.31,1.31,2.15,2.55,3.80,2.49,2.50,3.59,2.43,1.57,2.85,1.45,-0.63,-1.38,1.97,1.32,-0.33,-0.36,-0.23,-0.83,0.57,0.28,0.39,-1.38,-2.59,0.51,-0.77,-0.10,-2.18,1.56,-0.48,0.92
"ex1692",0.22,0.35,0.82,-1.23,-0.12,2.41,1.75,3.63,4.73,6.95,6.23,5.51,3.66,2.06,3.55,2.52,-0.65,1.04,-0.88,-0.91,1.22,-0.61,1.65,-0.61,0.30,0.95,-1.11,1.13,-0.23,0.21,0.24,0.83,0.86,0.40,2.24
"ex1693",-1.08,-0.76,2.38,1.29,2.43,2.85,3.55,5.02,2.83,2.54,3.53,2.04,4.05,2.86,3.09,2.24,3.38,0.45,2.19,0.88,0.53,-1.26,1.23,0.32,-1.82,0.20,-0.42,-0.64,-0.78,-0.33,1.14,-0.62,-1.71,0.72,1.37
"ex1694",-2.28,-0.47,-0.15,0.12,-0.24,0.91,2.30,3.28,2.70,4.28,6.13,5.24,3.34,1.57,3.73,2.33,-0.87,0.03,0.08,-1.48,0.06,-2.41,-1.22,0.09,1.36,-0.89,-0.17,-0.16,-0.34,-1.21,-0.46,0.16,1.57,0.76,1.35
"ex1695",0.73,0.66,0.24,2.69,0.78,3.74,2.86,3.61,4.79,3.61,4.68,3.20,2.61,2.26,0.68,-0.04,0.77,-0.67,-0.08,1.24,0.43,1.67,-0.49,0.16,0.78,0.87,-0.61,1.25,-1.64,1.59,1.38,1.76,-0.53,-0.29,1.29
"ex1696",1.34,-0.02,-1.35,0.99,0.08,-1.28,-0.24,-1.51,-0.01,1.82,2.35,2.87,2.56,3.56,5.60,3.83,3.21,3.40,1.80,0.29,0.15,-0.70,-0.92,0.06,0.27,0.37,-1.21,-2.17,0.89,-0.11,0.85,0.54,-0.63,-0.30,0.28
"ex1697",0.23,0.08,1.61,-0.09,0.59,0.18,-0.70,1.62,-0.00,2.48,0.98,3.69,3.24,3.02,5.80,2.71,2.88,1.20,2.65,-0.14,0.41,1.13,-1.13,0.91,-1.11,1.90,-0.49,0.17,-0.45,-0.15,1.60,0.57,0.17,-1.43,-1.17
"ex1698",0.53,1.97,1.24,-2.20,-0.97,-0.31,1.03,4.84,3.23,3.22,4.82,6.34,4.28,1.43,1.94,1.55,-0.25,1.92,0.35,-1.38,0.58,0.72,-0.15,0.31,0.24,-1.44,-0.29,-1.28,0.11,-0.07,-1.27,-1.01,-1.34,0.20,0.89
"ex1699",-0.43,1.39,2.39,2.75,1.96,3.46,4.58,6.29,3.07,3.42,1.67,2.97,2.50,1.14,1.10,1.29,1.49,3.06,0.42,-0.06,-0.14,1.16,0.60,1.85,0.88,-1.92,-0.17,-0.85,-0.75,-0.24,-0.80,1.16,1.02,2.38,0.41
"ex1700",0.31,0.61,0.64,1.46,0.43,-0.22,1.15,1.39,0.31,-0.60,1.87,2.56,3.30,4.71,6.86,5.89,4.07,2.14,1.81,1.35,0.05,-0.94,0.94,0.48,0.38,-0.34,1.70,0.31,0.98,0.63,-1.16,0.69,-0.50,-0.19,1.43
"ex1701",1.81,-1.14,0.74,-0.69,-2.01,0.50,2.42,-1.29,-0.28,0.44,1.58,4.39,4.76,7.08,6.00,4.91,3.03,1.85,1.40,1.53,-2.33,-0.05,-1.61,-0.72,1.07,0.35,-1.83,-0.47,0.97,0.88,0.63,1.17,-1.09,1.47,-0.81
"ex1702",0.26,-1.04,-1.24,0.70,-0.77,1.16,2.07,3.51,3.95,4.25,6.03,5.16,4.08,4.00,2.22,-0.18,-0.76,0.69,-0.90,0.68,-1.08,-0.76,0.84,-0.24,-0.54,0.85,1.22,-0.47,-0.50,1.64,-0.06,0.32,-0.66,-0.54,1.29
"ex1703",0.24,1.38,1.08,0.42,1.76,2.16,2.18,3.99,3.01,2.37,2.60,2.85,1.43,1.99,2.36,1.66,0.83,1.77,-0.07,1.35,-0.14,-1.84,0.10,1.18,0.02,0.11,0.91,-0.06,-1.96,-0.21,-0.89,0.31,-0.46,0.53,1.78
"ex1704",-1.07,1.45,1.23,3.44,1.08,1.74,4.92,4.66,2.15,5.12,3.43,3.92,0.18,4.15,1.51,2.27,-0.86,0.00,-0.30,0.07,-0.54,-0.77,-0.82,0.51,0.51,-0.20,-0.00,-1.18,0.88,-0.57,-0.36,0.11,0.19,-0.59,-1.12
"ex1705",-0.45,-0.52,0.64,-0.97,1.84,1.52,0.50,2.72,3.65,4.00,4.88,4.83,4.19,2.00,2.84,1.03,0.03,1.52,-0.08,0.07,0.87,-1.10,1.51,0.16,-1.53,1.45,0.44,0.17,-0.42,-1.01,0.69,1.02,-1.73,0.02,-0.08
"ex1706",-0.91,0.61,0.07,-0.55,1.67,2.79,1.51,1.08,2.28,1.46,4.09,2.09,2.89,3.88,3.46,3.58,2.26,2.39,0.24,0.89,-1.21,-0.27,-0.94,-1.52,0.04,-0.26,-0.82,0.02,-0.57,0.75,-0.20,-0.49,-1.17,0.07,-0.52
"ex1707",-0.99,0.85,1.77,1.20,3.12,4.38,5.30,2.80,1.38,1.78,2.93,1.83,1.86,3.16,0.35,2.72,1.51,1.16,-0.62,-0.12,-2.26,2.17,-0.84,0.60,0.74,0.86,0.06,-0.66,1.02,0.01,-1.88,0.03,0.16,-0.50,0.06
"ex1708",2.09,1.53,0.05,-0.32,2.50,3.39,1.87,3.86,2.65,4.67,5.15,4.06,3.46,0.08,1.25,1.59,1.53,0.31,-1.03,1.52,-2.57,-0.65,1.91,2.01,0.85,-0.18,-0.19,1.30,0.39,0.48,0.39,-1.10,0.83,0.42,-0.57
"ex1709",0.99,0.21,-3.07,-0.45,-0.76,3.24,-1.13,1.55,0.47,4.93,5.37,4.87,4.16,3.71,2.76,2.06,0.83,0.72,0.29,-0.31,0.50,0.73,-0.29,1.80,0.52,-0.26,-0.69,-0.47,-1.80,1.08,1.11,-0.94,0.41,-0.82,-1.80
"ex1710",2.60,0.17,0.96,1.37,3.51,3.09,4.64,4.57,1.67,2.21,2.51,2.88,0.78,0.81,1.59,2.37,0.86,0.89,1.02,-0.10,0.12,-2.50,1.23,-0.67,1.07,-1.28,-0.16,-1.71,0.49,1.21,-0.67,-2.59,-0.09,-1.20,2.31
"ex1711",0.65,-0.50,-0.89,-0.79,0.09,-1.00,1.17,4.70,2.56,3.34,4.89,3.74,2.17,2.84,2.38,1.33,1.01,1.16,-0.57,1.30,-1.38,-2.07,-0.02,-0.25,0.25,-0.02,-0.02,-1.75,0.47,1.36,-0.62,-0.40,-0.03,0.90,1.29
"ex1712",0.66,1.18,-0.23,1.81,0.50,0.78,0.72,1.76,1.08,1.44,1.42,1.38,3.48,3.84,5.96,4.21,2.26,1.57,2.26,-2.04,-0.36,1.14,-1.18,-0.22,-1.21,-0.67,-0.65,-0.40,1.18,-0.72,-0.00,-1.54,0.82,0.05,-0.61
"ex1713",0.69,0.73,0.33,1.49,-0.65,-0.14,-0.14,-0.94,0.47,1.89,0.44,3.73,2.69,3.97,5.73,3.76,1.33,3.23,-0.31,-0.02,1.26,-2.10,-0.34,-1.52,0.86,0.97,0.28,0.16,0.57,-1.89,-0.63,1.21,-0.10,0.37,1.21
"ex1714",0.51,-0.22,-1.46,-0.15,0.61,-0.50,0.99,1.82,1.15,4.47,3.58,4.41,4.87,3.88,3.44,2.49,1.93,2.50,1.19,0.64,1.71,0.03,0.30,-1.36,-2.34,-0.33,0.07,-0.58,-0.44,1.63,0.34,2.02,-1.01,-1.30,0.75
"ex1715",-1.09,0.10,0.63,0.59,1.84,1.02,2.97,2.77,0.75,1.43,3.36,0.95,2.98,2.67,1.62,3.45,2.20,2.92,0.14,-0.04,-0.88,-1.07,0.13,-0.63,-1.39,-0.02,-0.00,-0.54,-1.20,0.29,0.76,-0.31,-1.18,-0.11,-0.01
"ex1716",-1.12,-0.97,1.22,0.89,3.70,1.93,2.91,3.85,2.85,2.11,2.22,1.49,1.86,2.25,2.12,2.57,0.95,3.44,2.31,1.24,0.41,-0.31,2.42,-0.36,1.10,1.73,-0.34,0.75,0.27,1.80,0.61,-0.44,-0.03,-2.42,0.95
"ex1717",-0.21,0.75,-0.58,2.50,0.69,-0.10,2.66,0.87,2.34,2.61,1.64,3.86,3.77,6.51,3.94,2.30,3.50,2.38,1.72,-0.55,-0.68,-0.66,-0.92,1.75,0.05,-0.72,-0.05,-0.67,0.71,-0.02,-0.00,-0.04,-2.22,0.41,1.01
"ex1718",-1.89,0.71,1.28,1.30,3.54,4.79,5.20,3.89,4.46,3.80,0.75,0.04,-0.09,1.39,0.14,-0.41,1.79,-0.17,0.06,0.71,-0.16,-1.38,-0.33,-0.99,0.70,1.26,-0.61,0.10,0.31,-0.42,0.17,1.85,-0.98,0.66,-0.48
"ex1719",-0.69,0.18,1.51,1.33,0.68,1.31,0.81,0.10,-0.27,-1.08,1.60,1.34,2.42,3.97,3.75,4.26,3.12,3.90,2.85,0.71,-0.12,-1.45,1.01,-1.05,-0.24,1.36,-0.92,-0.11,-0.45,-0.57,0.74,-0.41,0.18,0.45,0.11
"ex1720",1.51,-0.41,2.39,3.73,6.21,6.90,3.44,5.01,4.35,4.87,1.79,2.94,0.03,-0.24,0.75,1.79,-0.05,1.41,-0.57,-0.44,0.86,0.83,-0.60,0.35,-0.28,0.98,1.82,-0.02,0.06,0.26,0.05,-0.24,1.19,-0.00,0.10
"ex1721",-0.60,1.22,1.04,0.62,0.16,0.42,0.57,0.83,1.06,1.58,2.33,3.95,5.32,2.59,4.42,5.39,1.41,1.73,1.18,2.38,-0.96,0.14,-0.07,-0.78,-1.42,0.93,-0.26,-0.52,-1.05,0.80,-0.12,1.44,1.99,-0.50,0.19
"ex1722",0.98,1.62,-0.02,-0.50,-0.84,-0.47,1.51,1.48,1.53,3.69,2.73,4.72,2.86,5.72,3.03,2.95,1.44,1.25,3.26,0.45,0.48,0.26,0.01,0.07,2.00,0.17,-0.53,-1.26,0.15,-1.01,-0.23,-0.92,0.10,0.10,-1.20
"ex1723",-1.67,0.03,0.60,1.30,1.86,3.35,3.57,4.11,4.18,2.20,3.78,3.05,1.87,1.18,0.93,1.17,-1.35,0.58,-1.35,-0.17,0.25,-0.64,-0.86,-0.39,0.99,-1.35,2.58,1.49,-1.33,-0.43,0.87,-0.17,-1.67,-1.11,-1.07
"ex1724",-1.76,0.36,-1.37,-0.58,0.53,0.02,1.28,-0.40,2.21,2.74,3.24,3.68,5.26,4.96,4.36,4.66,2.13,0.83,0.49,0.88,-0.56,1.18,2.64,0.10,-1.21,-0.27,-1.23,0.77,1.56,0.29,-0.26,-0.73,-1.33,0.22,0.94
"ex1725",1.07,0.04,0.89,-0.94,0.66,-0.16,2.72,3.90,3.56,3.13,5.05,5.41,5.14,3.19,1.37,-1.10,0.60,2.06,-0.72,0.26,0.45,0.60,-0.73,1.12,0.83,-1.81,0.69,0.27,-0.14,-0.91,-0.35,0.37,-1.26,1.10,0.21
"ex1726",-1.67,1.30,-1.28,0.35,2.29,1.23,2.02,0.61,0.32,1.25,2.19,1.65,4.52,4.69,4.85,4.22,3.81,3.24,1.05,-0.37,2.27,0.47,0.58,0.57,0.37,0.02,-1.31,-0.73,0.63,-0.78,1.03,-0.56,-0.15,-0.88,0.05
"ex1727",0.33,1.86,1.57,-0.10,-0.56,2.35,1.95,0.44,1.16,2.75,3.15,3.30,3.09,4.82,3.14,3.47,1.97,0.68,0.14,2.48,1.48,1.07,0.71,0.35,0.70,0.16,-0.62,-1.33,0.76,1.18,0.83,-0.48,1.04,0.58,-0.77
"ex1728",-0.18,0.85,-0.63,0.63,2.00,2.44,5.01,2.51,3.53,1.83,5.61,3.04,3.59,1.39,0.48,0.30,0.38,-1.06,-1.22,0.29,-0.86,-1.32,0.07,0.93,0.13,-0.35,0.52,1.12,0.64,-0.94,-0.78,-0.77,-0.50,-1.35,1.71
"ex1729",0.82,-0.50,0.13,-0.36,-1.67,1.68,2.07,1.22,1.91,4.22,3.57,3.41,2.79,2.86,4.66,2.28,-1.09,0.86,-1.24,1.18,-0.32,-0.56,0.82,-0.20,-1.30,0.07,0.81,-2.03,0.90,0.40,0.86,0.11,-0.69,0.91,-0.73
"ex1730",0.50,-0.84,-1.06,-0.63,-1.90,0.06,-0.22,-1.12,-1.37,2.15,1.23,3.81,2.80,4.81,3.75,6.14,3.58,2.82,2.77,0.29,-0.73,0.35,-1.55,0.58,0.93,-1.62,2.00,-1.03,-0.41,-1.58,1.41,-0.16,-1.22,0.29,0.56
"ex1731",-0.98,0.91,0.72,2.40,3.48,2.93,1.86,0.25,1.73,0.93,2.12,2.58,0.84,1.94,3.39,3.73,1.71,1.06,0.57,1.80,-0.36,0.68,-1.63,-0.66,0.33,-1.25,-1.04,-0.58,-0.42,0.73,2.10,-1.11,-0.32,0.08,0.12
"ex1732",-0.95,0.31,1.89,1.78,1.62,2.42,3.17,3.69,3.25,1.42,4.74,2.82,3.35,5.04,4.60,3.54,3.68,1.80,-1.46,0.04,-0.82,0.30,0.23,0.60,-0.45,0.48,-0.06,1.98,-0.23,-0.94,-0.85,-0.68,0.96,-1.82,-1.76
"ex1733",0.87,-0.55,0.59,1.14,3.14,2.74,6.43,3.48,1.74,2.63,2.79,3.30,-0.27,1.58,0.86,-0.43,-0.67,-0.91,0.23,-0.23,-0.07,-0.06,0.98,0.99,-0.02,-0.93,0.22,-0.32,-2.02,1.31,0.51,2.32,-0.42,1.19,0.55
"ex1734",1.23,-0.51,1.20,-0.62,0.69,-0.72,0.22,0.35,2.07,1.85,2.31,4.02,4.13,4.60,5.23,2.95,4.59,4.83,1.78,0.26,1.23,0.05,1.39,-2.78,0.46,0.70,-1.21,-1.62,-1.01,1.50,-2.39,-0.71,1.24,1.68,0.63
"ex1735",1.43,1.64,0.03,0.35,-1.18,2.95,3.06,3.20,2.56,1.86,4.67,3.84,3.51,3.32,4.50,3.06,2.41,1.95,1.72,3.04,-0.29,0.09,1.37,1.28,-2.40,0.52,0.38,0.87,-0.43,0.13,1.71,-0.04,-1.24,1.26,0.67
"ex1736",-0.15,0.26,0.95,4.38,4.77,3.15,4.18,2.28,1.84,3.79,0.63,1.15,0.20,3.23,2.43,1.92,2.44,2.38,1.98,0.34,0.23,-0.35,-0.71,1.52,-1.10,0.07,-1.83,-0.59,-1.97,-0.74,1.22,0.40,-1.74,0.45,-1.86
"ex1737",0.57,-1.42,-1.14,1.76,2.22,0.84,-1.02,0.55,0.14,1.36,0.57,3.43,4.13,3.21,6.19,4.48,3.08,2.86,1.79,0.24,0.71,-0.68,-0.30,0.17,0.20,-1.43,-1.56,-0.10,-0.23,-0.37,-0.52,0.93,-0.21,2.31,-1.54
"ex1738",1.07,1.42,0.96,2.71,4.62,4.05,5.08,5.22,2.71,1.64,1.70,1.93,0.88,1.15,1.28,0.39,0.46,-0.66,-1.22,-0.05,-1.83,-1.35,-2.00,-0.01,-0.11,-0.27,0.02,-1.28,0.13,0.90,0.98,0.75,-0.79,0.18,-0.10
"ex1739",-0.61,-0.11,0.33,0.63,2.49,-0.49,-0.93,1.14,0.29,1.66,1.51,4.19,4.46,5.80,5.44,3.66,3.36,3.07,1.39,-1.04,-1.28,0.07,0.11,0.68,0.12,0.11,0.26,1.69,1.37,0.03,0.40,-0.15,0.33,-0.39,-0.57
"ex1740",-0.01,1.90,-0.14,0.40,0.03,0.29,-0.04,3.59,3.82,2.40,7.17,3.76,4.14,4.31,2.72,1.87,1.15,1.16,0.90,-0.77,-0.76,1.57,1.18,0.32,0.78,-0.61,0.84,1.39,-0.65,0.46,-0.90,-0.63,-0.20,-0.06,0.61
"ex1741",-0.18,-0.15,1.49,-0.57,-1.37,-0.34,0.42,2.32,3.21,1.93,4.23,4.11,3.77,4.11,3.28,1.98,3.66,1.70,2.99,2.66,0.34,-0.57,0.81,0.04,-1.49,0.10,2.10,-1.72,1.46,-1.09,-0.75,-0.37,0.29,-0.56,-0.95
"ex1742",1.29,-1.53,0.88,1.18,0.21,1.36,1.30,0.77,1.12,2.31,3.39,0.47,4.72,5.78,5.77,4.67,5.47,2.40,1.88,0.36,-0.45,0.94,-0.12,0.26,0.02,1.74,-2.00,-0.19,0.01,-0.25,-0.07,0.22,0.27,-1.69,0.27
"ex1743",0.41,-0.68,-0.12,0.07,1.69,4.38,5.11,3.72,3.40,2.43,2.93,3.20,2.23,-0.63,2.60,1.58,0.72,-0.05,-1.08,0.61,-0.87,0.73,-0.07,-0.12,2.47,-1.47,0.54,1.88,0.91,0.37,-0.36,0.12,0.30,0.37,-0.09
"ex1744",0.50,-0.62,1.39,0.60,0.83,2.35,2.28,4.58,4.33,4.48,4.55,2.03,2.66,2.78,2.23,1.25,0.21,0.45,0.67,-1.63,0.14,0.52,-0.63,-0.18,-0.99,0.05,-1.68,-2.17,-0.32,0.16,-0.46,-0.37,0.11,-1.11,0.77
"ex1745",1.60,0.93,0.49,-0.12,0.30,1.09,0.49,1.80,0.96,0.29,2.77,4.26,3.41,3.83,3.66,2.49,2.82,2.45,1.27,0.41,-1.43,1.96,0.76,-1.58,0.66,-1.28,1.80,1.07,-1.21,-1.22,-0.19,-0.37,-1.03,-1.07,0.73
"ex1746",-0.19,-0.30,-0.85,-0.24,0.01,1.42,0.50,-0.92,-1.05,0.60,1.75,3.67,4.23,4.57,7.42,5.14,4.83,4.30,1.64,-0.46,-1.93,1.50,0.31,-0.87,-0.60,0.42,-0.39,-1.13,0.16,-1.31,-0.45,0.54,0.50,-0.94,0.64
"ex1747",0.37,-1.20,-0.34,0.84,1.68,-0.26,3.35,1.17,1.71,0.16,1.71,2.95,4.61,3.02,5.12,3.01,4.76,3.84,1.89,1.57,1.57,-2.57,0.22,-1.22,-0.90,1.38,-0.02,-1.47,-0.30,0.43,0.49,0.90,1.01,0.73,-0.17
"ex1748",-0.06,2.26,0.79,-0.15,1.37,0.90,-0.28,2.33,1.61,2.34,3.39,5.24,2.78,3.37,4.47,0.07,1.80,2.21,2.20,-1.06,0.38,0.51,-0.05,-0.12,-0.64,-1.29,1.27,0.40,-0.72,0.42,1.24,0.47,-1.43,0.12,0.42
"ex1749",-0.34,0.99,0.40,1.07,0.29,2.48,1.45,1.49,1.00,1.68,2.44,1.13,1.53,3.88,3.93,3.80,0.21,2.06,2.48,-0.82,0.43,-0.15,-0.29,-1.72,-0.01,0.02,-0.10,0.26,-1.29,1.04,-0.89,-1.46,-0.41,-1.06,-0.20
"ex1750",1.41,1.91,3.94,2.11,3.92,4.47,4.79,5.61,4.75,1.62,3.55,0.77,-0.53,0.39,-1.29,-0.24,-0.80,-0.52,1.77,-1.46,2.17,-0.45,-0.52,0.26,-0.55,1.51,-1.92,-0.58,1.27,-1.86,-1.02,0.28,-0.92,1.89,-0.61
"ex1751",1.10,0.62,1.65,-0.79,-0.33,1.76,2.30,2.54,3.45,3.35,4.88,6.53,3.03,2.82,2.85,1.17,0.88,-0.42,-0.42,1.05,-0.76,0.57,-1.23,-0.49,-1.59,1.56,-0.42,-0.14,0.08,-2.35,0.27,0.59,-0.96,1.35,-0.90
"ex1752",-0.27,1.60,3.50,3.03,4.61,5.12,6.57,4.94,2.60,2.49,2.95,-0.70,1.00,1.24,-0.14,0.82,-2.18,-0.04,-0.45,1.47,-1.06,0.55,1.76,-0.63,-0.97,-1.75,-0.49,1.22,-0.55,-0.10,0.91,-0.09,0.78,1.03,0.56
"ex1753",1.21,0.18,-0.22,0.59,0.84,2.26,1.28,4.15,0.42,0.21,2.61,1.97,1.14,4.57,3.84,2.41,3.85,0.33,0.50,1.18,0.18,0.02,-2.00,0.79,-0.51,0.62,0.73,1.70,0.28,0.39,-1.02,-0.78,0.25,-1.31,0.11
"ex1754",2.10,0.91,-0.32,-0.48,0.71,0.88,0.82,-0.19,0.18,2.90,2.67,4.83,4.22,5.10,2.38,3.69,2.53,1.87,1.68,0.86,0.37,0.37,0.24,0.36,-0.89,-0.19,-0.14,1.39,-0.67,-1.59,-1.57,-0.65,1.17,0.45,-0.14
"ex1755",-1.53,0.86,0.21,2.55,2.39,5.52,5.27,6.03,2.83,3.67,1.26,1.36,-2.21,-0.14,-0.47,-1.01,-0.80,-0.85,0.40,0.18,0.02,-1.33,0.27,-1.25,0.34,-0.76,-0.11,-0.69,0.84,0.95,-0.17,-0.78,0.12,-0.03,0.15
"ex1756",-1.39,2.25,1.56,1.44,4.17,4.85,4.46,5.99,4.95,4.79,2.01,1.97,1.36,-0.53,-0.85,-0.66,0.45,0.84,-0.60,-0.21,-0.55,-0.73,-0.03,1.34,-1.69,0.27,-1.28,0.65,0.22,-0.98,-0.32,-0.26,0.04,-0.31,-1.28
"ex1757",0.79,1.26,1.83,-1.44,-0.76,0.36,1.97,0.59,-0.96,1.95,1.85,2.91,4.40,3.84,3.86,3.33,3.18,2.06,1.08,2.54,0.15,0.61,-0.20,-1.47,-0.69,1.75,-1.86,0.12,1.89,0.06,-0.49,1.97,-0.19,-2.01,-0.24
"ex1758",-0.55,1.57,0.21,0.36,0.86,-1.85,0.83,0.42,1.53,0.79,1.57,3.43,2.89,5.47,6.91,5.08,4.05,2.12,1.63,1.69,-1.65,-0.70,1.66,0.22,0.48,3.34,0.95,-1.69,1.83,0.63,-0.05,-1.44,0.51,0.62,-0.35
"ex1759",-1.48,-0.47,-0.26,0.02,1.31,-0.64,1.17,0.75,1.67,2.24,3.90,4.24,4.35,6.18,5.54,2.53,1.90,1.67,2.34,0.91,1.05,-1.72,2.34,-2.38,-1.78,-1.54,1.42,0.25,-0.55,2.83,0.89,0.57,-1.88,-1.09,-0.70
"ex1760",-0.61,-0.26,0.32,1.49,1.26,3.57,4.22,3.76,4.74,4.94,2.71,1.71,3.61,1.49,0.25,1.98,0.56,0.98,0.71,-0.73,1.42,-0.03,-0.89,1.28,-0.94,-0.60,1.34,-0.84,0.74,0.54,-0.95,0.35,-0.74,0.53,1.02
"ex1761",-0.14,0.46,-1.86,1.41,1.32,1.20,3.05,3.30,4.57,5.17,6.21,5.82,2.74,1.52,1.75,-0.16,0.03,1.47,0.82,-0.34,2.27,-0.31,0.43,-1.03,-0.05,0.25,-0.72,2.55,-1.34,-0.85,2.03,2.70,-0.21,-0.97,-1.28
"ex1762",0.32,3.65,0.43,2.04,1.99,1.26,1.93,2.06,2.09,-0.49,2.31,0.17,1.60,2.62,3.24,2.82,2.08,0.67,0.83,2.10,0.94,-0.85,-0.96,-0.92,0.24,0.67,-0.68,0.36,2.11,-0.36,-0.82,1.67,0.32,0.94,1.79
"ex1763",0.88,-0.50,0.98,3.41,1.47,2.81,3.13,3.07,4.28,1.44,2.08,3.25,2.13,4.18,2.32,1.56,1.83,1.02,1.49,0.02,1.39,-0.84,0.04,-2.44,-0.04,1.92,0.35,0.24,0.60,-1.26,0.67,-1.27,0.72,0.54,0.68
"ex1764",0.78,1.15,1.29,1.48,3.06,4.73,6.39,2.13,2.35,3.15,0.53,1.00,0.78,1.38,0.69,3.06,0.85,2.19,0.76,-1.30,-0.08,-0.25,0.05,-0.80,1.34,0.65,-0.72,-0.74,-1.50,0.59,-0.95,0.87,1.74,0.25,0.87
"ex1765",-0.43,-0.79,-0.39,-0.37,1.46,0.74,2.37,2.94,5.01,2.14,6.02,5.11,2.44,4.04,2.41,-1.25,-0.73,-1.65,-1.93,-0.04,0.89,-0.14,-0.88,0.66,-0.59,-0.59,-0.80,1.12,-0.05,-1.15,0.96,-0.25,-0.63,2.33,0.20
"ex1766",1.06,-1.43,0.52,1.76,-0.11,1.93,-0.58,1.41,1.91,2.32,4.61,5.45,3.33,4.53,3.11,2.67,0.19,1.12,0.04,-0.50,-0.82,-0.52,-0.30,0.34,0.97,1.95,0.32,0.38,0.96,1.47,-0.34,-0.66,0.69,1.00,-1.92
"ex1767",-0.52,0.24,2.42,3.19,4.18,5.23,7.08,3.63,3.54,3.61,3.11,1.04,1.06,0.06,1.35,1.69,0.03,0.58,-0.33,-0.08,1.66,1.34,0.80,0.15,-0.58,0.50,-0.37,-0.54,-0.24,-0.11,0.20,0.62,2.21,-0.62,-0.10
"ex1768",0.08,0.18,1.50,2.19,4.28,2.44,3.81,2.85,2.89,2.72,0.87,1.80,0.98,1.06,1.53,2.50,1.47,1.17,0.88,0.38,1.62,0.34,-0.53,-0.54,0.57,1.42,-0.22,0.69,-0.50,0.22,0.45,-2.38,1.02,-1.46,0.51
"ex1769",-2.07,-0.16,0.13,-1.59,-0.78,-0.10,2.11,1.68,0.31,3.18,3.15,4.76,5.78,4.38,2.79,3.37,2.50,2.17,0.97,1.67,0.20,0.33,0.69,-1.68,2.22,0.98,0.34,0.57,-0.72,-0.06,1.16,0.76,0.69,-0.94,0.34
"ex1770",1.59,0.46,0.55,3.26,2.94,3.15,4.18,3.70,3.13,1.82,1.93,1.62,1.55,-0.33,3.52,0.95,0.83,2.85,1.08,0.81,-2.56,-1.50,-1.43,0.35,-0.24,-0.83,0.56,2.00,0.34,-0.96,-0.16,0.88,-0.62,1.22,-0.91
"ex1771",0.42,2.24,-0.64,-1.32,1.24,0.76,0.61,-0.51,0.61,1.48,2.16,2.65,5.29,4.64,5.35,2.77,3.46,3.31,1.80,0.86,0.83,-0.70,0.65,0.22,0.95,-0.95,0.44,0.61,-0.75,-1.35,2.56,-0.18,-1.91,-1.22,0.20
"ex1772",0.09,0.40,-0.48,1.28,2.51,3.95,3.96,3.85,4.78,4.45,6.28,2.17,2.94,1.77,1.31,1.54,1.50,1.88,-0.18,-0.29,2.09,0.14,0.46,-1.51,-1.09,1.62,0.32,0.45,1.38,-0.31,-0.44,0.86,-1.18,-0.41,-1.65
"ex1773",-0.98,-0.17,0.07,1.94,-1.04,-0.29,1.46,0.74,0.27,1.88,2.44,3.37,2.71,5.35,3.86,4.12,5.01,2.69,3.48,2.38,-0.18,-0.34,-0.04,0.56,-1.55,-0.41,-2.19,-1.65,-1.58,-1.11,-0.06,-0.92,0.73,0.30,1.24
"ex1774",1.67,0.33,0.34,0.55,0.24,3.67,1.84,3.76,5.07,4.24,4.89,4.94,5.23,3.60,2.28,-0.01,0.39,0.04,-1.26,0.02,0.36,0.60,-1.43,-0.43,-0.25,-0.93,-1.18,0.03,-1.21,0.05,-0.72,1.41,-0.14,-0.53,1.28
"ex1775",-1.32,-0.65,0.79,0.89,3.18,1.85,5.44,4.67,3.29,2.47,2.71,0.08,2.79,1.22,4.03,2.30,1.40,2.30,1.00,1.28,1.25,2.06,0.44,-0.04,0.32,0.21,-2.04,1.26,0.48,0.64,-2.06,-0.04,-0.48,0.66,-0.98
"ex1776",1.28,2.01,1.07,2.18,-0.01,1.04,2.18,3.75,6.13,3.97,4.12,4.88,4.63,2.56,2.16,-0.44,0.76,0.47,-0.62,-1.38,0.77,-0.67,-1.02,1.33,0.92,-0.95,1.28,1.04,1.32,1.25,-1.16,-0.73,-1.27,1.00,-0.62
"ex1777",0.05,-0.13,0.54,0.39,0.03,0.87,0.52,1.11,1.10,1.68,2.25,1.72,3.93,5.93,6.18,3.74,3.60,4.37,2.59,0.07,-1.32,0.83,0.96,1.13,-1.74,-1.45,0.58,-0.37,-0.73,0.55,-0.43,-1.09,-0.61,-0.16,1.00
"ex1778",-1.86,-1.07,0.84,0.06,1.92,0.63,5.18,3.88,4.96,4.32,5.09,1.48,1.17,3.89,2.59,1.71,1.95,-0.65,1.59,0.74,-1.19,-0.75,0.13,-0.39,-2.07,1.06,-0.56,-1.26,0.20,-1.06,1.42,-0.38,0.39,0.30,-0.02
"ex1779",1.27,0.08,1.16,0.42,0.30,1.74,1.40,3.44,4.68,5.12,3.90,3.88,3.40,2.05,1.24,1.14,-1.10,-1.44,-0.95,1.60,-0.61,0.33,-0.84,-1.20,-0.64,-0.47,0.50,0.73,1.09,1.18,-1.91,0.41,-0.34,1.26,-1.19
"ex1780",0.91,0.82,2.43,3.82,3.85,5.41,4.82,4.34,4.22,2.17,3.86,1.28,-1.43,0.40,-0.56,0.69,-1.25,-1.27,-0.09,-0.74,-1.05,0.09,0.17,0.46,0.01,-0.97,-1.28,-1.16,1.22,0.41,-0.27,0.81,-0.80,-0.73,0.22
"ex1781",1.52,1.99,0.15,1.01,1.33,2.42,2.98,2.01,1.90,4.90,4.97,4.37,3.70,1.73,1.43,-0.76,-0.97,-0.20,0.53,-1.30,1.29,0.79,0.26,-1.19,0.16,0.08,1.66,-1.37,0.37,0.06,-0.03,0.38,-0.42,1.87,0.84
"ex1782",-0.18,-0.57,0.85,2.39,4.82,4.86,7.99,6.96,4.74,3.04,1.31,-0.56,0.63,-0.42,-0.20,0.61,-1.16,0.18,-0.37,0.03,-1.79,-0.70,-2.10,0.73,0.10,-0.19,0.03,0.18,1.54,1.43,-2.62,-0.40,-0.37,0.29,-1.18
"ex1783",-0.07,-1.03,-0.08,0.25,-0.08,1.14,3.19,3.82,4.35,3.75,5.95,6.36,3.05,3.33,1.93,-0.56,1.21,-0.55,-0.19,-0.62,0.14,-0.21,-0.50,0.87,-0.21,2.50,0.88,-0.60,-0.16,0.51,0.63,-0.92,0.83,0.03,-0.91
"ex1784",0.22,2.22,-2.27,0.47,1.31,2.22,3.26,3.90,3.51,3.90,5.73,4.40,3.05,1.74,2.04,-0.18,0.93,0.49,-1.22,-0.36,-0.04,1.54,-1.23,0.52,-2.06,0.58,1.58,-0.54,-1.53,1.35,0.89,-0.11,1.78,-0.28,-1.38
"ex1785",-0.38,1.53,3.48,3.72,0.89,4.48,7.30,3.87,3.69,4.30,1.43,2.51,0.37,0.21,0.57,-0.56,1.81,0.03,-0.29,-2.67,0.76,1.37,1.55,0.05,-0.36,-0.15,0.71,0.41,0.73,0.31,-0.45,-0.95,-1.17,0.74,1.48
"ex1786",-0.05,0.11,1.00,-1.17,1.33,-0.21,-0.03,3.08,-0.22,2.05,3.52,5.35,4.37,5.57,6.18,5.27,4.52,3.28,0.75,1.21,0.24,-1.02,-0.44,-1.04,-0.40,-0.59,1.44,0.53,0.50,-0.12,-0.44,0.26,-1.21,-0.62,0.77
"ex1787",-0.53,0.71,2.48,4.78,2.33,3.37,4.30,5.77,4.23,2.91,2.30,1.58,1.98,-0.99,1.32,0.57,-0.44,0.78,-0.05,-0.98,1.76,-0.59,-0.49,-0.35,1.13,-0.17,-0.40,-0.46,0.49,-1.39,-0.82,0.67,-0.49,0.69,1.61
"ex1788",0.23,0.89,0.35,1.58,-0.41,-1.34,0.33,0.39,2.31,1.39,2.23,4.33,2.61,5.78,6.44,4.16,5.22,1.59,0.86,2.77,0.76,0.53,-0.51,0.71,-0.55,1.00,2.14,-1.10,-0.75,0.28,-0.24,0.42,1.72,-0.23,0.48
"ex1789",0.84,0.75,0.22,1.23,2.99,4.82,3.35,3.68,0.37,0.69,1.01,2.04,1.24,2.62,3.44,3.27,0.22,0.10,0.65,-0.04,-0.74,-0.03,-0.42,0.27,-0.67,0.62,-1.77,-0.09,0.45,0.73,0.22,0.35,1.17,0.30,-0.68
"ex1790",0.30,1.46,0.64,0.17,0.53,0.29,-0.22,0.94,1.91,1.31,2.96,3.21,2.38,4.30,5.57,3.92,3.94,1.70,2.24,0.63,0.21,-1.47,0.49,0.05,1.29,-1.80,0.02,-0.68,1.47,-1.65,-1.31,-0.53,0.20,0.80,-0.46
"ex1791",1.81,-2.13,0.02,-0.15,1.30,1.68,1.46,1.66,2.79,3.43,4.96,2.98,5.07,5.06,5.37,3.22,1.33,-0.68,0.59,2.90,-0.51,1.17,1.15,-1.65,-0.02,0.47,-1.21,0.80,-0.06,0.44,0.99,0.07,0.56,-2.22,1.00
"ex1792",-0.49,0.43,0.99,2.00,3.22,4.55,3.23,3.49,4.00,3.49,2.60,2.04,1.32,0.40,0.98,0.17,0.01,-0.65,-0.33,0.05,0.29,0.82,-1.95,-1.14,-0.41,0.70,0.31,-0.29,0.75,-0.18,0.09,-0.46,1.25,0.25,-1.02
"ex1793",-0.22,1.66,0.81,1.36,3.52,3.14,4.99,5.10,3.01,4.03,2.75,0.76,1.17,0.62,1.16,1.88,0.91,-0.41,2.63,-0.38,-0.32,0.06,0.32,-0.28,-1.00,0.17,0.05,1.10,-1.98,-0.15,-0.40,-0.12,1.70,-0.01,0.26
"ex1794",-0.32,0.66,-0.41,1.51,0.75,0.46,1.31,1.14,2.84,4.70,3.36,2.54,5.45,3.48,4.57,4.17,1.73,1.29,0.35,0.60,-0.31,0.91,0.35,-0.32,0.78,0.09,-1.43,1.59,-0.41,0.68,0.97,-1.43,0.00,0.24,-0.16
"ex1795",-1.06,0.23,1.07,0.25,2.18,-0.26,0.10,0.36,1.82,1.30,1.17,-0.29,2.91,3.09,5.26,2.72,2.14,2.79,1.89,-0.74,2.30,0.24,2.93,0.26,-0.67,-2.47,0.73,0.03,-0.62,0.82,-0.29,-1.00,1.22,1.20,-1.08
"ex1796",-0.45,0.05,1.63,-0.08,0.97,1.19,2.75,2.54,5.13,4.32,5.85,5.66,4.05,2.13,2.31,0.77,0.64,-0.70,-0.28,-0.10,-0.93,1.26,-0.03,0.06,-0.59,1.37,-1.27,0.70,0.48,0.71,1.38,0.88,0.18,-0.01,-1.25
"ex1797",-0.22,1.38,2.12,2.80,5.88,5.89,5.41,5.88,4.46,2.47,2.58,0.55,2.70,-0.47,-0.81,-0.24,-1.71,-1.07,-0.02,-0.47,1.36,0.70,2.15,-0.44,-1.33,-0.47,0.80,-0.92,-1.41,1.01,-2.19,-0.04,0.82,0.32,0.49
"ex1798",-0.33,1.85,1.49,1.74,2.54,2.20,6.61,4.35,4.03,4.26,2.65,0.75,0.62,0.17,0.33,1.87,2.38,0.07,-0.27,1.51,1.78,1.57,-1.49,0.45,0.36,0.95,-0.52,-0.06,-0.82,-0.49,-0.18,-1.64,0.57,-0.43,0.39
"ex1799",0.27,2.11,1.56,0.90,1.81,2.00,3.14,2.16,3.81,1.75,2.44,1.41,0.76,0.57,3.28,2.84,1.03,1.73,-0.22,0.92,-2.13,0.07,-1.82,-0.73,-0.85,1.26,0.90,-0.50,-1.21,0.03,1.50,0.64,0.98,-0.87,1.81
"ex1800",-0.54,1.68,0.97,0.74,1.38,0.76,1.78,4.60,3.13,6.84,4.34,3.63,2.98,1.94,2.53,1.13,1.34,-0.27,0.47,-0.89,-0.72,-0.21,-0.65,-1.04,-0.49,2.02,0.03,1.47,0.09,0.61,0.24,2.00,1.11,1.03,2.44
"ex1801",-1.21,0.73,1.36,1.02,0.11,1.49,0.63,0.69,1.61,2.30,3.19,3.86,4.16,5.32,4.46,3.86,3.09,1.69,2.68,0.95,-1.08,0.40,1.51,-0.32,-1.01,0.21,-0.63,0.55,0.49,1.24,-0.35,-1.45,1.48,-0.17,-1.62
"ex1802",-0.47,-0.31,0.45,2.54,0.10,4.05,2.15,2.81,1.63,1.74,0.86,2.84,3.22,3.20,3.07,3.94,1.40,1.07,1.50,0.80,1.29,0.53,-0.80,1.06,-0.71,-0.86,0.50,0.03,-0.25,-0.83,-1.28,0.85,-1.02,1.07,-0.39
"ex1803",-0.80,0.88,1.41,2.85,2.32,4.75,5.21,3.08,4.69,4.35,2.99,1.61,0.15,2.40,0.08,0.42,-0.77,2.11,-0.64,-1.55,2.04,-0.01,0.46,0.27,-0.02,-1.61,0.25,1.66,0.42,0.28,1.42,1.03,0.33,1.94,-0.59
"ex1804",2.12,1.10,-1.27,-0.97,0.53,2.07,2.39,3.28,4.13,4.58,5.83,4.90,2.39,3.33,1.41,1.97,-0.01,-0.43,0.29,-1.36,-1.00,-0.07,-0.73,0.45,0.66,0.96,0.78,0.12,0.01,-1.00,1.82,-1.10,0.73,0.32,-1.20
"ex1805",1.45,1.58,0.42,0.76,-0.55,0.68,0.14,-0.85,0.10,1.52,0.60,4.86,4.00,5.16,7.00,4.61,3.09,3.77,1.04,0.91,1.63,-0.28,-0.41,1.49,0.13,-0.93,-0.79,0.58,-0.53,-0.76,-0.00,-1.99,2.39,0.17,-1.43
"ex1806",-1.96,-0.37,1.16,2.54,2.16,3.37,5.60,3.80,3.02,2.34,0.86,1.80,0.81,1.18,1.31,-0.70,0.21,-0.23,-0.41,-0.22,-0.35,-1.42,0.36,0.90,-0.21,-1.15,0.25,0.46,-0.26,0.31,-0.20,-0.31,1.02,-0.67,0.65
"ex1807",1.40,0.42,0.47,1.20,0.21,2.02,0.81,2.29,1.60,0.88,1.78,1.85,5.34,3.96,3.99,7.46,3.11,1.51,1.44,0.80,-1.51,-1.84,1.75,1.16,-0.32,-0.25,-0.50,-0.86,-1.01,0.20,-1.13,0.06,-0.12,-0.02,1.18
"ex1808",-0.69,0.40,-0.61,-0.62,-0.46,-0.37,1.17,0.93,0.31,2.09,3.43,2.60,3.82,6.18,5.18,3.20,4.15,3.13,1.00,0.88,1.32,1.32,0.42,-0.75,1.82,0.20,0.49,-0.75,-0.38,0.26,0.75,-1.47,-0.40,-2.05,0.29
"ex1809",-0.37,-0.84,-1.52,0.36,1.01,1.10,1.34,2.43,1.83,3.90,5.95,4.33,3.96,4.17,1.56,3.52,0.19,0.23,-1.33,-1.14,0.92,1.06,-0.23,1.16,0.17,-1.15,0.68,-0.15,1.63,-0.86,1.13,0.29,0.52,1.27,2.23
"ex1810",-0.27,2.56,1.22,2.29,3.61,2.65,3.67,3.66,1.59,2.14,1.26,2.28,2.73,1.67,3.14,1.40,2.57,0.32,-0.19,-1.55,-1.28,0.74,-0.58,1.46,-1.19,-0.44,-0.77,0.20,-0.67,-0.07,-0.53,-0.54,1.36,0.87,1.31
"ex1811",0.77,1.57,-1.50,0.18,-0.11,2.27,-0.03,0.30,-0.97,1.84,3.57,2.88,2.70,2.62,2.72,2.91,3.43,2.40,1.77,-0.61,-1.60,-0.27,-0.62,0.38,-0.89,-1.42,1.96,0.69,-0.17,0.35,0.46,-0.60,0.16,-0.78,-0.18
"ex1812",-1.83,0.89,-1.00,0.70,0.27,1.43,1.09,2.59,2.23,4.11,4.79,4.83,3.30,5.16,5.10,1.40,0.28,0.61,0.67,0.74,-1.82,-0.59,-1.09,-0.21,-0.08,0.09,1.04,0.14,-0.15,-0.43,-1.28,-1.82,0.73,-0.17,-0.06
"ex1813",2.73,0.80,-0.75,0.94,-0.21,1.12,2.29,2.96,3.37,3.33,6.52,3.40,4.81,1.09,0.94,2.40,-0.52,1.32,-1.83,0.38,0.97,0.43,0.52,0.14,0.24,0.48,0.96,-1.46,-0.61,1.19,-0.60,0.22,1.14,0.03,1.07
"ex1814",-0.20,-0.06,0.43,0.35,-1.55,0.34,2.39,2.09,4.40,5.05,8.27,5.53,4.34,2.63,0.99,1.14,-0.01,-0.00,0.03,-0.21,-0.08,-0.84,-0.27,-1.90,-0.32,0.64,0.25,0.79,0.30,-0.28,2.47,0.12,0.17,-1.68,0.63
"ex1815",1.54,-0.61,-0.46,0.05,1.55,0.99,0.96,-0.39,-1.02,1.46,0.96,2.38,4.35,3.38,2.99,3.70,3.52,1.56,-0.13,-0.53,-0.46,0.12,-0.46,-2.67,-0.36,-0.13,-0.06,-0.48,1.38,0.57,-1.86,-1.37,-0.43,1.05,-0.21
"ex1816",-0.29,-0.69,1.09,1.45,1.10,1.10,1.64,1.08,0.28,0.92,0.77,1.04,2.63,5.60,4.29,3.68,3.68,3.51,1.51,2.98,0.49,1.10,0.25,-0.48,0.95,-0.68,0.61,-1.39,0.57,-0.42,-0.32,0.67,-0.54,-0.01,0.07
"ex1817",0.11,-0.23,0.17,2.71,3.94,3.03,5.63,3.66,2.55,2.14,2.96,1.79,0.44,0.50,0.94,0.34,3.73,2.06,0.75,-0.78,0.41,-1.02,-1.30,0.80,-1.21,-0.47,-0.68,0.80,-0.03,-1.41,1.02,-1.01,-0.21,0.55,0.27
"ex1818",-0.85,0.55,1.84,0.35,2.28,2.64,4.40,4.06,1.64,2.25,4.65,2.43,0.85,1.92,1.68,-0.38,0.79,-0.92,1.18,-0.61,-0.23,0.01,0.21,-0.19,-0.46,0.01,0.30,0.95,0.69,0.58,-1.27,0.21,-1.18,0.53,2.53
"ex1819",0.33,1.15,1.67,2.05,3.48,3.33,5.51,5.83,5.05,2.90,3.47,2.26,1.83,-2.05,-1.10,0.54,-0.49,1.04,-0.16,0.22,0.98,-0.86,-0.87,-0.02,-0.19,-1.37,0.09,0.09,0.35,-0.08,-2.59,-0.25,-0.77,-0.50,-0.93
"ex1820",-0.14,0.92,1.00,0.03,1.17,1.13,4.64,3.75,2.35,5.04,5.18,3.33,2.77,0.06,0.47,0.48,-1.69,-0.07,0.69,0.35,0.29,0.42,-0.47,-0.08,0.60,-0.08,0.34,-0.43,0.62,-0.46,-0.34,-0.25,-0.57,-1.68,-0.12
"ex1821",0.76,-2.47,-0.12,0.06,-0.06,2.08,2.88,3.00,3.27,4.06,4.91,5.74,3.82,3.77,2.82,2.75,1.25,-0.26,-1.30,1.52,0.17,-0.33,1.04,1.06,0.51,0.59,0.39,0.61,-0.19,-0.54,-1.47,-2.48,-0.41,-2.04,2.28
"ex1822",1.31,-0.95,-0.26,-0.11,-0.34,-1.00,1.58,2.02,3.30,4.52,7.41,4.58,3.87,0.48,2.08,1.93,0.32,1.20,1.63,-0.40,-0.09,0.10,0.84,1.26,-0.93,2.39,-2.55,-0.77,0.00,0.08,0.17,-0.44,1.90,0.61,-0.61
"ex1823",-0.88,-0.07,-0.87,0.59,-0.67,0.27,0.86,2.04,0.24,0.72,1.73,4.23,4.26,5.05,5.80,2.51,3.18,3.66,1.91,1.41,-0.99,0.65,-0.56,-1.10,-2.91,0.81,0.57,-1.77,-0.82,-0.62,0.67,-1.10,0.73,0.59,1.25
"ex1824",-0.17,1.39,1.73,4.16,3.14,4.46,5.42,6.52,3.68,1.85,3.67,0.55,-1.10,1.23,-0.94,-0.85,1.25,0.77,0.88,1.05,-1.06,-0.28,1.42,1.17,1.49,-0.91,0.55,0.83,0.33,0.57,-0.87,0.40,-0.90,-1.02,0.69
"ex1825",0.20,-0.77,1.62,0.36,-0.34,1.42,0.79,3.03,2.46,5.53,7.80,5.24,3.41,2.88,3.63,2.42,-0.42,0.36,0.18,1.64,-0.23,-1.34,0.11,0.02,-2.54,0.84,0.05,-2.74,-0.02,0.72,0.75,-0.56,0.64,-0.89,0.28
"ex1826",0.92,1.59,-0.79,0.80,2.40,4.57,4.23,3.43,3.18,1.21,1.87,1.34,-0.31,1.15,1.39,0.61,2.01,0.46,-0.42,-0.19,0.71,1.17,-0.40,0.47,-0.65,0.80,-0.43,-0.16,-0.55,0.27,0.46,-0.90,0.30,-0.53,-2.49
"ex1827",-1.73,-0.19,0.79,2.45,4.35,5.27,4.22,3.98,6.07,2.27,2.41,1.16,0.01,-0.48,0.10,1.06,-1.11,0.04,1.09,-0.08,-0.12,-0.48,-0.34,-0.21,0.85,0.21,-0.20,-0.22,0.98,-0.81,0.72,0.47,0.32,-0.14,0.24
"ex1828",0.47,0.25,0.72,2.14,1.59,1.54,0.42,0.62,3.23,1.95,1.45,2.09,3.76,5.30,3.87,2.74,1.82,2.36,-0.31,1.53,-0.81,-0.06,-0.31,-1.85,-0.51,0.19,1.69,1.52,-1.09,0.42,-0.50,0.34,0.09,-1.31,0.86
"ex1829",1.43,2.16,-0.11,1.77,1.76,4.02,4.76,6.10,3.73,3.01,1.39,2.89,0.85,-0.45,1.12,0.80,0.15,0.98,1.12,-0.57,0.37,0.84,-1.29,1.87,0.88,0.45,-0.88,0.48,0.52,-0.16,-1.16,0.31,0.85,-0.96,1.39
"ex1830",-0.48,2.02,1.47,-0.25,1.08,2.31,-1.00,1.03,3.40,3.73,4.90,3.52,3.10,3.47,3.02,1.96,0.14,0.40,1.12,1.22,-1.82,0.90,1.04,0.00,1.94,0.52,-2.12,1.38,-0.99,-0.11,-1.53,-2.84,0.38,0.85,-0.04
"ex1831",0.54,-0.04,-0.01,-1.62,-0.08,-0.18,1.19,-1.06,0.27,1.29,1.00,2.27,6.54,3.93,6.26,6.03,3.74,3.24,2.89,2.71,-0.11,0.74,0.07,-0.54,0.35,0.50,1.32,-0.76,-0.44,-1.32,1.23,1.20,0.08,-1.71,-1.06
"ex1832",0.25,0.78,-1.08,1.60,0.59,-0.12,1.10,2.08,0.89,1.70,0.81,2.61,3.15,4.48,6.46,5.85,2.30,1.95,2.32,1.34,-0.44,-1.41,2.40,1.14,0.85,-1.46,-0.82,-0.93,0.22,-1.88,0.04,1.53,2.04,-0.32,0.86
"ex1833",1.14,0.65,0.21,2.94,4.20,4.86,5.36,5.28,4.04,4.29,3.55,0.39,0.17,0.45,1.79,0.27,1.95,-0.12,-2.48,2.03,-0.47,0.53,0.81,1.48,1.79,0.51,0.95,0.91,0.38,2.07,0.34,-1.33,0.91,-1.06,-0.84
"ex1834",1.05,0.17,0.18,1.59,2.41,0.71,1.25,1.75,2.67,5.08,3.79,2.48,2.79,1.29,0.83,-0.98,-0.33,0.26,-1.69,0.34,0.25,-0.34,-0.52,0.08,0.95,0.67,-0.48,-1.43,0.62,-0.53,0.52,-1.18,0.67,1.04,0.95
"ex1835",0.82,-0.27,1.03,0.35,0.19,-0.78,-1.03,0.17,0.31,1.60,2.46,3.93,5.23,6.44,6.27,4.71,5.00,4.48,2.29,0.02,0.05,0.44,-0.78,-0.87,-0.23,0.18,-0.62,-3.26,-1.33,-0.12,-0.49,-1.44,-0.49,-0.49,-0.65
"ex1836",0.55,-0.14,-0.36,1.25,2.02,1.54,0.32,3.89,3.71,3.47,5.93,6.18,3.87,2.65,0.74,0.87,0.36,0.82,1.03,0.19,0.33,-1.48,-0.20,0.92,-0.06,-0.52,-1.07,1.37,1.27,-0.26,1.85,0.33,-0.70,0.56,0.85
"ex1837",0.22,0.20,0.42,0.30,2.16,4.15,3.19,4.68,4.98,3.62,2.56,1.46,1.53,1.24,0.82,1.19,0.54,0.97,0.12,-2.49,-1.48,0.61,-0.73,0.12,-0.22,-0.20,-0.11,-0.19,0.07,0.78,-0.99,-0.64,-0.98,0.05,0.24
"ex1838",2.47,-0.87,-0.79,0.03,1.73,1.68,0.10,3.50,-1.43,0.14,3.10,1.01,3.59,4.49,4.43,4.29,1.00,0.53,2.72,0.09,-0.34,-0.65,-2.01,-0.18,-0.20,-0.91,-0.42,-0.53,-0.75,-1.43,1.28,-0.44,0.50,-0.60,-2.19
"ex1839",-2.25,-0.86,2.69,2.35,2.77,5.18,5.24,5.40,3.34,3.47,3.67,0.77,0.73,0.84,-0.05,-0.36,-0.16,0.60,-0.19,-1.41,0.20,-0.52,-0.78,-3.00,-1.22,1.28,-0.15,-0.70,-1.24,0.09,0.15,-1.74,1.28,-0.65,-0.03
"ex1840",0.27,0.11,-2.08,-0.05,-1.07,1.79,1.64,2.45,2.63,5.18,6.45,4.67,3.31,3.01,2.66,3.71,-1.42,1.34,-0.07,0.36,0.88,-1.79,0.43,0.70,-0.07,-1.21,-0.55,0.05,0.22,-1.51,-1.04,-0.70,-1.05,-1.70,0.49
"ex1841",-0.46,0.27,0.94,1.71,0.93,3.17,4.78,4.94,4.83,4.07,2.50,3.34,2.03,0.90,-1.50,0.39,-1.18,0.46,2.36,-0.44,-1.12,0.07,-0.29,-0.12,-0.83,0.34,1.53,-0.05,-1.09,1.63,1.34,-1.03,-0.50,1.32,-1.41
"ex1842",-0.28,-0.42,-0.66,-0.01,-2.01,-0.02,0.11,-1.08,1.80,2.52,3.37,3.21,3.34,5.26,3.81,6.19,3.21,2.11,0.16,0.08,1.04,1.56,0.48,-0.50,-0.15,-0.11,-2.03,1.48,-0.12,-0.12,-0.44,1.34,-0.38,-1.20,1.04
"ex1843",-0.98,0.87,1.01,-0.17,-1.42,0.38,1.67,2.30,2.02,2.12,4.84,5.32,3.67,5.88,4.21,2.75,2.17,2.79,2.22,0.74,-0.98,0.43,0.41,-1.36,0.98,0.16,-0.79,-0.22,1.81,-0.51,0.02,-1.71,-0.50,-1.24,-0.70
"ex1844",2.64,0.73,-0.14,2.71,1.73,3.02,5.14,3.60,2.57,3.70,2.42,1.60,0.85,1.30,1.57,2.10,0.90,-0.93,-1.73,0.96,-0.91,-0.55,-1.54,-1.74,-1.97,0.21,-1.99,-0.46,0.71,-1.59,1.25,0.78,0.29,0.07,-0.83
"ex1845",-0.18,0.23,0.36,-0.64,2.09,0.52,0.18,0.70,1.68,1.96,1.71,2.85,4.09,4.74,4.89,2.79,4.15,4.07,2.30,2.08,-0.43,-0.11,0.12,0.64,-0.08,-0.42,1.91,1.54,1.04,-0.51,-0.20,-0.64,0.93,-1.06,-0.07
"ex1846",0.78,0.40,0.86,1.82,1.17,4.79,5.83,4.72,3.13,3.67,0.91,3.28,-0.35,0.62,0.63,0.25,-0.57,0.20,-0.31,-0.86,-1.04,0.21,-0.52,0.71,0.45,-0.65,-0.98,-0.54,0.90,0.86,2.66,0.23,0.50,0.38,-3.14
"ex1847",-1.08,-0.52,-0.86,1.35,-0.22,-0.33,-0.31,1.24,0.79,2.50,3.93,4.05,0.98,4.55,4.15,4.86,3.81,1.89,-0.20,1.23,-0.25,-0.02,-2.08,-0.59,0.72,0.45,-0.80,1.66,1.01,-0.14,-0.34,0.89,0.40,-0.50,0.70
"ex1848",0.44,1.18,3.07,3.33,1.97,2.99,3.51,2.03,3.20,2.92,2.90,2.53,1.00,1.22,2.08,0.48,1.86,0.98,0.41,-0.54,0.36,1.08,-0.53,-0.02,-0.08,3.91,0.12,0.33,-1.13,-1.24,-0.31,0.58,0.40,0.10,1.44
"ex1849",-0.42,-0.97,0.15,-0.18,0.50,0.88,1.60,0.02,1.29,2.08,1.51,3.91,6.40,4.09,4.82,4.24,4.96,3.07,2.54,1.01,-1.28,0.25,-0.33,1.91,-0.14,0.68,-1.23,0.59,0.38,-0.27,0.22,0.13,-0.34,-0.56,-0.14
"ex1850",-2.12,-1.61,-2.01,0.28,-0.07,-1.46,0.22,-2.71,1.85,0.72,4.28,3.35,2.49,4.97,5.16,4.64,3.96,2.80,1.06,1.13,1.73,-1.42,-0.75,1.02,2.65,-0.05,-0.26,0.46,-0.47,-0.73,-0.69,0.20,0.74,-0.39,1.78
"ex1851",1.49,-0.41,2.47,1.29,-1.37,-0.96,1.59,2.01,4.34,3.37,5.54,5.65,5.35,3.33,3.75,1.52,-1.28,1.09,-0.02,-0.68,-2.33,-0.78,-1.21,1.14,-0.94,0.16,1.29,-0.63,0.04,-0.35,0.54,0.11,-1.06,0.07,-1.15
"ex1852",0.03,2.48,-0.72,-1.17,0.87,-1.19,2.24,-0.44,2.72,4.00,4.51,3.91,2.92,3.49,4.28,2.18,3.91,1.35,2.99,1.52,0.47,-0.02,-0.24,-0.25,-0.75,1.13,1.42,0.56,2.07,0.47,-1.13,2.38,-0.32,0.45,-0.59
"ex1853",0.23,0.72,1.59,3.15,0.07,4.06,4.54,3.05,2.25,3.24,2.19,2.03,0.05,-1.51,1.94,2.49,0.95,0.00,-0.02,-0.62,-0.15,0.71,1.00,-0.89,-0.14,-0.49,0.66,0.58,-1.28,-0.05,0.34,-0.11,0.49,0.28,0.01
"ex1854",-1.97,-1.31,0.39,1.83,-2.00,-0.23,2.09,0.29,1.19,0.22,2.06,1.96,2.40,6.08,5.47,4.78,3.29,3.46,0.58,3.02,0.16,-1.97,-0.97,-1.37,-0.30,-0.70,-0.84,-0.43,0.14,0.14,0.75,0.13,0.65,1.46,-1.39
"ex1855",0.30,2.15,-0.10,1.01,1.61,1.68,3.13,4.52,3.89,4.74,3.68,3.06,1.27,3.30,2.15,-0.44,-0.11,-1.86,-0.24,-2.13,-0.52,-2.49,-1.25,0.37,-0.16,0.75,0.26,0.59,-0.39,-0.94,-0.20,1.34,-1.43,0.36,-0.59
"ex1856",0.01,-0.44,-0.93,1.36,0.04,1.15,0.88,4.61,3.41,4.58,5.25,4.62,5.14,3.74,2.85,1.28,0.70,0.78,1.73,0.26,-0.28,0.38,0.68,0.08,0.92,1.43,-1.67,0.89,-0.81,1.61,-2.49,-2.33,1.88,0.65,0.06
"ex1857",0.91,-0.16,-0.05,2.06,0.24,1.99,2.99,1.93,3.41,2.94,1.56,2.01,3.24,2.24,2.66,2.57,0.98,0.97,0.06,0.97,1.86,-0.10,-0.54,1.20,1.26,0.45,-1.22,0.80,-0.33,0.11,-1.07,1.15,0.36,0.27,-2.80
"ex1858",0.96,0.20,-0.70,0.40,-0.68,0.54,0.99,2.03,2.17,3.09,3.44,2.94,4.04,3.22,4.99,2.32,4.10,2.30,0.20,1.36,1.05,0.68,-0.99,-0.06,1.28,1.19,1.25,-0.03,0.56,-0.51,0.29,0.38,1.03,-0.51,0.13
"ex1859",-0.31,0.14,0.96,1.21,2.31,-0.60,1.30,3.00,0.61,2.17,0.68,1.80,1.85,3.02,3.99,4.11,2.30,1.62,0.95,2.09,-0.92,0.63,0.00,0.93,-2.12,-1.46,-0.08,0.44,-0.51,0.60,0.72,-1.76,1.03,0.70,2.15
"ex1860",0.58,1.77,2.45,3.04,2.61,3.76,4.41,4.13,1.78,3.66,1.10,2.04,0.96,1.56,3.54,0.66,3.40,1.66,0.97,0.46,-0.15,0.04,-1.60,-1.20,1.09,-1.26,0.43,-1.09,-0.52,0.86,-0.77,0.39,0.63,0.76,0.78
"ex1861",0.65,-0.23,0.57,-0.55,-0.87,0.83,1.03,-0.41,1.71,1.31,2.45,3.20,3.28,5.01,4.45,3.83,3.80,2.56,-0.28,1.56,1.20,1.51,-0.24,-1.79,-0.50,0.58,-0.56,0.69,-0.80,-0.58,-1.89,-0.92,-0.97,2.24,-1.09
"ex1862",0.15,1.94,0.44,3.87,2.99,2.22,4.54,5.15,1.87,3.31,2.70,-0.72,-0.43,1.29,1.41,-1.09,-1.28,1.15,-0.15,-0.28,-0.53,-0.52,0.26,-0.04,0.54,1.72,0.38,-0.41,0.17,0.63,-1.03,-0.04,-0.17,0.32,-0.26
"ex1863",-0.05,-0.23,2.45,1.18,2.53,2.45,4.03,3.73,1.01,2.72,1.10,2.45,1.43,1.47,3.29,3.89,0.37,0.04,0.51,1.02,-1.06,-2.43,-1.04,-1.16,-0.07,-0.13,0.00,-0.20,1.52,0.18,-0.45,0.10,1.59,-0.85,1.12
"ex1864",-0.45,-1.36,0.00,0.89,-0.80,1.68,2.16,3.41,4.26,6.61,6.50,4.82,3.32,3.06,2.50,0.18,-0.62,0.48,0.46,-0.16,-1.23,-2.99,-0.31,1.01,-1.57,0.20,-0.34,1.12,-0.44,1.11,-0.46,-0.63,-1.57,-1.88,-2.81
"ex1865",-0.94,1.58,2.74,4.37,4.53,2.74,2.73,2.96,5.04,2.05,2.10,2.88,3.14,2.19,1.18,1.51,-0.53,3.32,0.67,-0.29,2.24,-1.07,-0.84,-1.37,-0.57,0.10,-0.83,-0.21,2.09,-1.19,0.15,-0.82,-0.54,0.48,1.65
"ex1866",-0.19,0.24,-0.81,1.95,3.04,1.44,4.41,2.42,4.35,4.92,4.61,4.65,2.57,0.31,0.98,-1.15,0.18,-0.67,0.40,-1.10,1.89,-0.16,-0.77,-1.77,-1.59,-0.71,-0.08,-1.65,-0.00,0.93,-1.24,-1.09,1.44,-0.69,0.01
"ex1867",-0.58,-1.83,0.65,0.92,-0.26,2.71,2.32,0.20,-0.34,1.62,1.58,2.70,2.76,4.11,5.34,4.35,1.94,3.68,1.28,-0.26,-0.54,-1.10,-0.70,0.56,-0.11,-1.28,0.12,-0.68,-0.27,2.37,-1.73,-0.04,1.63,-0.00,-0.27
"ex1868",0.22,0.20,0.47,2.07,0.57,1.36,2.69,2.19,5.01,5.90,3.84,4.99,2.40,2.57,0.99,0.54,0.18,1.63,-0.93,-0.65,-0.63,0.59,-1.16,1.20,-0.80,0.61,0.20,-1.04,1.86,-0.08,-0.80,0.41,-0.21,1.91,2.16
"ex1869",-1.96,-2.96,-1.08,0.07,0.67,2.99,3.19,3.81,3.79,4.31,5.40,3.78,4.44,3.29,2.42,1.65,-0.71,1.47,1.35,1.21,0.43,0.71,-1.77,1.54,0.06,-0.14,0.31,0.10,0.31,-0.90,-0.40,-0.63,-1.01,1.00,-0.45
"ex1870",0.62,-2.06,1.04,-0.56,-0.35,0.04,2.08,1.60,4.84,3.34,6.02,4.25,5.35,2.02,2.05,-0.37,-0.14,-0.90,0.89,0.01,0.09,0.36,-1.33,0.10,-0.54,0.58,-0.82,0.66,-0.06,-0.64,0.12,-0.99,1.06,0.65,0.22
"ex1871",-0.68,1.58,3.08,2.13,2.45,2.78,5.84,6.21,3.11,1.81,1.34,2.22,0.95,0.33,-0.16,0.74,-0.86,0.71,-0.19,1.97,-0.50,-1.01,-0.48,-0.72,0.56,-0.11,-0.52,-0.23,-0.22,2.13,-0.88,-0.22,0.09,-0.20,1.10
"ex1872",1.06,-1.55,2.06,-1.27,0.77,-0.50,-0.94,-1.11,1.10,0.91,2.81,2.77,1.29,4.45,5.32,4.16,4.77,3.41,2.43,1.85,-0.35,-2.07,-1.78,1.17,-0.80,-1.01,0.21,-1.28,-0.04,0.40,-1.16,-1.15,-0.29,-0.56,-0.33
"ex1873",-0.52,0.61,2.36,3.22,2.65,4.91,4.41,4.74,3.52,3.93,3.41,3.07,0.75,-0.63,0.31,-0.12,-0.22,0.76,0.18,-0.34,1.31,-0.89,0.34,1.93,0.92,1.90,-1.03,1.04,0.45,-0.41,-0.45,-1.12,1.93,0.97,2.36
"ex1874",1.21,0.90,-0.04,2.02,2.73,2.52,3.14,3.63,3.83,3.27,2.48,1.18,2.26,2.35,1.16,2.03,1.75,2.65,0.37,1.05,-0.68,-1.23,0.35,1.09,1.12,0.29,0.16,0.08,-1.58,-0.10,1.23,0.18,1.01,1.39,-0.81
"ex1875",1.42,0.13,-1.16,-0.34,-1.23,1.03,-1.29,1.47,-1.38,2.46,2.62,3.14,3.28,3.52,6.49,4.35,3.62,2.12,2.57,1.86,-0.06,0.94,-0.67,0.86,-1.38,-1.02,-0.56,-1.21,-0.42,-0.64,-0.27,-0.42,-0.06,1.57,-0.18
"ex1876",0.20,0.74,-0.82,0.57,0.67,0.12,2.19,2.77,3.20,4.09,5.31,5.45,5.13,2.13,2.04,-0.08,-0.70,0.29,0.94,1.53,-0.09,1.67,-0.79,1.44,-1.63,0.48,-0.02,0.85,0.63,-0.82,0.37,-0.22,0.34,1.22,0.38
"ex1877",-1.28,1.45,1.70,2.06,2.68,3.65,6.02,4.33,5.90,3.80,2.50,2.37,1.47,1.98,1.21,-0.24,0.69,-0.86,0.11,-0.33,-0.58,0.08,-1.86,-1.80,-1.56,1.12,-0.67,-1.56,-0.63,-0.98,0.86,-1.66,-1.52,-0.69,0.05
"ex1878",-0.30,-0.47,-0.83,-0.15,1.42,3.51,2.45,4.24,2.48,4.30,4.01,4.28,4.29,2.93,4.99,2.38,0.55,-0.34,1.33,-0.55,1.77,0.72,0.30,-0.41,-0.50,-0.39,-1.41,-0.06,-0.25,0.11,1.22,1.05,0.26,0.79,0.79
"ex1879",1.68,0.74,-0.68,0.46,-1.49,-2.09,1.50,1.08,0.33,2.38,2.06,2.32,4.17,8.00,2.78,5.99,3.55,2.22,1.44,0.82,0.44,0.30,-0.59,-2.81,-0.00,-1.61,1.21,0.13,-1.32,-0.63,0.31,0.64,0.34,-0.66,-1.37
"ex1880",-0.51,2.40,2.20,2.31,4.32,5.72,6.76,3.49,4.14,4.64,2.57,0.15,-0.23,0.79,1.37,-0.01,0.19,1.14,0.45,-0.37,-0.79,-0.52,-1.36,0.25,0.88,-0.38,-0.61,-0.49,-0.94,0.26,0.54,0.65,1.41,1.27,-1.06
"ex1881",0.28,-1.83,-2.48,-1.24,-1.46,-2.37,0.75,-1.02,0.81,1.49,2.32,1.35,4.32,4.16,5.84,4.13,4.04,1.41,2.64,1.09,1.84,0.33,0.34,-0.14,-0.76,-1.26,-0.78,0.96,-1.14,1.59,-0.20,0.62,0.98,1.17,-0.45
"ex1882",0.88,0.24,-0.01,-1.67,0.41,2.57,0.86,1.51,0.22,-0.12,2.98,3.67,3.02,6.57,6.49,5.01,4.35,3.15,1.51,-0.19,-1.17,-0.70,-1.08,0.78,-0.70,0.19,-1.09,0.30,-0.65,-0.34,0.36,1.82,1.59,0.21,0.15
"ex1883",-1.41,2.52,0.04,-0.03,2.45,1.84,3.50,2.44,1.53,0.52,1.50,0.36,2.94,0.40,1.80,2.72,1.55,2.85,0.25,0.25,-0.38,0.58,1.72,1.16,2.32,-0.72,-0.47,1.17,-0.83,-1.09,-0.91,0.16,1.76,0.77,0.44
"ex1884",0.44,-1.98,-0.34,-0.78,-0.22,-0.03,1.05,1.47,1.43,2.52,4.54,4.79,4.48,4.80,3.27,3.59,2.08,2.94,1.52,1.63,1.06,0.15,-0.16,1.57,0.42,-0.21,0.61,0.38,1.02,-1.58,0.18,0.87,-1.27,0.41,-1.80
"ex1885",-1.18,-0.06,-0.11,0.83,0.01,0.84,0.63,1.86,-0.59,1.39,2.49,2.45,2.94,5.95,6.50,3.69,2.72,2.57,4.14,0.89,0.61,-1.89,-0.91,2.00,-0.30,1.12,-0.86,0.86,0.20,0.51,-1.03,-0.35,0.83,0.71,0.44
"ex1886",1.05,-2.24,-1.56,-0.67,-0.39,-0.18,1.03,0.86,-0.01,1.03,2.41,3.43,1.18,5.09,5.85,3.47,4.94,2.06,0.24,1.45,0.72,1.28,0.41,-0.08,-0.27,-0.98,1.82,1.77,1.88,-0.01,0.22,-0.43,0.73,0.71,0.34
"ex1887",-1.13,2.45,1.48,1.54,4.37,3.69,4.95,3.60,3.40,1.67,1.20,2.45,2.41,2.88,1.31,0.63,1.07,-1.07,1.34,-0.10,0.24,-1.66,-0.83,1.61,0.45,2.77,0.38,-0.78,0.79,0.70,0.61,-0.76,0.03,-1.06,1.09
"ex1888",-0.26,0.81,0.13,2.02,-0.09,1.34,0.22,0.96,-0.49,1.83,4.57,4.94,4.25,4.07,4.84,2.61,4.96,2.66,2.03,-0.28,-0.76,1.61,-0.29,-0.09,1.19,-0.36,0.03,0.86,-0.27,-0.02,1.08,0.72,-1.13,0.63,-0.42
"ex1889",-2.57,-0.48,0.60,1.01,-0.01,1.02,2.12,2.14,3.72,3.89,5.81,2.89,3.53,3.74,3.01,0.03,-0.00,1.33,1.43,1.22,1.43,-2.59,0.69,1.24,0.55,0.17,-0.97,0.24,0.08,-1.05,-0.45,0.23,0.09,-1.10,0.39
"ex1890",-0.56,0.27,2.20,3.36,1.45,1.39,5.16,5.91,3.28,3.74,4.49,1.38,1.11,3.14,0.41,1.55,0.04,0.01,2.05,-0.85,0.06,0.88,1.84,-1.10,0.21,-0.86,0.35,-0.04,-0.07,-0.79,0.05,1.02,-1.48,2.70,1.57
"ex1891",-1.89,0.61,1.71,-0.97,1.07,-0.23,1.80,3.37,3.85,4.74,4.27,4.15,6.10,1.70,2.68,0.72,0.57,0.13,1.54,0.89,-1.69,-0.74,-0.60,-0.85,0.73,1.05,0.78,0.41,0.13,0.57,-0.65,0.29,-0.18,-0.83,-0.89
"ex1892",-0.48,-0.99,-1.63,1.55,1.25,-0.64,2.61,-1.04,2.11,2.89,2.04,3.96,3.97,4.35,4.55,6.86,3.37,2.05,1.93,2.10,0.66,-0.27,-0.25,-1.06,0.95,1.13,-1.21,0.64,-1.65,0.14,0.08,-0.71,-1.73,1.35,1.35
"ex1893",0.64,-0.41,-1.17,-0.15,0.86,0.78,2.63,3.69,5.85,4.08,5.65,4.25,4.75,3.25,2.23,1.35,-0.82,0.05,0.98,-1.17,0.02,0.11,0.78,1.33,-0.10,0.95,1.80,0.74,-0.01,0.68,0.28,0.10,0.69,-0.10,-0.75
"ex1894",2.12,1.06,0.85,-1.42,-0.17,0.57,0.33,2.00,-0.47,2.03,3.49,2.79,3.57,3.93,5.43,4.26,4.79,3.13,2.81,1.50,0.32,0.74,-0.84,-2.85,0.56,2.03,-1.50,-1.15,-0.52,0.07,0.17,1.13,1.55,-0.93,-0.61
"ex1895",0.84,0.99,2.83,2.66,4.46,4.76,3.94,5.54,3.47,1.77,2.33,-0.14,-1.10,0.65,1.48,-0.21,-1.20,0.07,0.36,-0.41,1.73,0.29,0.72,-1.34,0.20,0.10,-0.06,-0.62,0.85,-0.46,-1.20,-1.40,1.68,-1.88,-2.11
"ex1896",-0.40,0.37,2.07,2.64,3.30,5.21,5.36,4.16,5.41,2.46,1.27,-0.37,-0.12,1.97,-0.37,1.45,-0.72,-1.55,-0.15,0.97,-0.14,0.14,-0.56,-0.17,1.72,1.13,1.14,-0.30,0.36,0.29,1.20,-0.44,2.00,-0.89,-0.09
"ex1897",1.22,0.09,0.76,0.50,3.34,0.53,2.02,3.44,3.36,2.34,2.07,1.26,1.61,3.00,1.13,2.24,2.33,1.01,0.02,1.39,-1.99,-0.38,-1.79,-0.78,2.43,-0.01,-0.64,1.18,0.18,0.45,-2.00,0.82,-0.74,-0.20,-0.92
"ex1898",1.33,0.44,0.28,0.40,-0.26,1.88,2.53,2.64,5.37,5.34,4.37,4.10,3.94,2.43,1.93,0.09,0.55,0.31,-0.32,-0.03,1.24,-0.56,1.02,0.68,0.81,-1.77,-2.15,0.86,0.20,-0.99,-0.84,-0.72,0.15,-0.22,-0.70
"ex1899",0.14,0.80,-0.11,1.05,0.65,0.27,1.58,2.25,2.25,5.32,5.65,3.64,4.33,2.69,2.93,-1.37,-2.55,-0.42,0.08,-0.21,-0.93,-0.61,0.31,0.11,0.02,-2.20,-0.47,-1.45,-0.16,0.25,2.13,-0.12,-0.22,1.35,0.16
"ex1900",-0.02,0.16,0.75,1.13,-1.13,1.18,-0.32,1.00,3.90,2.82,5.28,3.76,4.40,2.44,3.11,3.37,-0.20,-0.25,0.48,0.36,1.58,0.85,-0.81,-0.70,0.92,-0.03,1.92,0.33,0.24,0.66,0.17,0.26,-0.97,0.77,0.10
"ex1901",-1.22,0.27,-0.04,2.62,4.69,3.39,5.47,4.02,2.68,2.00,3.08,1.47,1.46,-1.51,1.01,1.45,0.51,-0.08,-1.03,-0.01,0.29,1.08,0.34,-0.06,0.69,0.33,0.19,-0.15,-0.12,0.86,1.39,-0.22,1.01,1.36,-1.07
"ex1902",-1.19,-0.59,0.86,2.76,2.62,4.14,4.90,5.73,4.13,3.79,5.47,2.71,0.99,1.30,-0.17,2.25,0.12,-1.22,2.02,0.10,0.63,0.25,0.60,0.08,1.37,-1.19,-1.37,-0.26,-2.01,0.13,-0.69,-0.71,-0.80,-1.81,-0.43
"ex1903",-0.00,-0.38,2.04,3.49,5.06,2.50,2.31,4.31,2.85,4.10,1.13,0.30,-0.14,0.32,3.04,1.51,1.56,1.19,-0.09,0.40,-1.10,2.03,-1.12,1.66,-1.60,-0.14,0.69,-1.46,1.65,-0.53,1.24,-2.16,-0.71,-0.37,1.17
"ex1904",1.11,0.62,-2.72,1.28,0.12,1.29,4.49,2.71,3.41,2.79,4.13,3.03,2.55,0.14,0.99,-0.17,1.39,0.33,-1.69,0.05,-0.14,-0.75,0.40,1.78,-1.52,-1.41,-0.16,-0.40,1.40,0.68,0.19,-1.32,1.50,-1.13,0.09
"ex1905",-0.98,0.20,0.77,0.14,1.71,0.67,1.73,1.12,3.44,4.27,2.39,4.94,3.92,3.75,2.90,0.27,2.11,1.85,0.85,0.38,-2.25,-0.81,-1.96,0.89,-0.54,0.03,-0.62,1.50,-0.18,0.68,2.66,1.45,0.17,-1.59,0.25
"ex1906",0.72,-1.24,0.76,1.92,-1.08,2.08,1.04,1.46,0.44,0.02,2.18,4.82,4.06,6.26,3.34,4.54,1.62,1.34,-0.95,2.64,-0.98,0.39,-2.24,1.83,-0.60,-0.94,0.60,0.71,1.60,1.11,1.07,0.39,-0.64,0.23,1.05
"ex1907",1.50,0.96,2.50,2.62,2.29,4.03,6.72,5.19,3.79,3.84,3.56,1.43,1.62,-1.94,0.99,1.37,0.63,-0.34,-0.48,-0.78,1.11,-0.68,1.43,-0.92,0.86,-0.77,-1.50,-0.73,-0.19,1.20,-0.79,0.09,1.58,-1.32,1.12
"ex1908",0.42,-0.72,1.14,1.53,2.17,2.36,3.23,3.76,2.49,2.08,2.59,2.08,0.39,2.98,3.27,1.14,2.31,2.72,1.21,0.37,0.71,0.35,-0.08,-0.14,-0.19,-0.80,-1.10,-0.33,-0.74,-1.01,-0.73,-0.52,0.51,1.24,0.47
"ex1909",1.24,0.95,2.29,2.06,2.02,4.80,3.66,2.32,2.58,1.39,3.64,1.44,0.80,2.69,2.78,4.15,0.93,-0.68,0.86,0.25,0.12,-0.62,-2.04,0.93,-0.70,0.38,0.10,0.88,-0.29,0.98,-0.52,-0.46,-0.07,-0.89,1.12
"ex1910",-1.30,0.04,-2.69,0.61,-0.44,1.27,-0.19,0.78,2.52,2.36,3.10,2.68,3.53,5.18,5.00,3.70,2.50,2.00,1.62,1.64,0.76,-1.20,-0.78,-1.08,-1.02,-0.27,-0.77,0.55,-0.67,2.12,0.11,0.55,-0.93,1.01,1.78
"ex1911",-0.66,3.09,0.40,3.72,2.57,2.12,4.18,5.53,3.66,4.03,5.12,2.33,1.62,3.62,0.17,1.81,-0.56,-0.76,0.73,0.66,2.80,-0.52,1.91,0.14,-0.14,1.73,-0.31,-0.02,0.11,0.10,0.43,-0.71,-1.07,-1.50,-0.60
"ex1912",-0.93,-0.73,0.06,-0.78,0.50,-0.91,2.15,1.23,1.52,1.30,3.15,3.52,3.22,4.85,4.91,5.26,2.12,2.11,0.61,1.77,-0.57,0.16,0.99,-2.20,0.62,0.46,0.77,0.00,0.59,-0.86,-0.77,-0.85,1.80,1.60,-1.51
"ex1913",-0.72,-0.71,0.31,0.12,-0.16,0.99,0.62,-0.09,2.63,0.47,2.00,2.82,1.78,3.79,6.23,3.19,4.50,2.81,1.62,0.99,-1.08,0.29,0.72,0.19,-0.45,0.69,-0.14,-0.02,0.82,-1.26,-0.75,-1.48,0.55,1.07,-1.18
"ex1914",-0.12,0.61,-0.52,2.75,3.91,3.27,3.79,3.66,4.05,1.71,1.62,1.62,1.06,0.37,2.12,1.28,1.24,0.86,2.07,-0.66,0.74,-0.32,-0.85,0.29,1.51,-0.95,0.56,-1.89,-0.14,-0.00,-1.02,-1.19,0.03,0.77,0.42
"ex1915",1.60,1.37,1.03,-1.00,-1.81,-1.46,2.87,1.78,0.84,2.88,2.47,4.88,4.27,5.10,4.86,2.99,1.42,2.13,2.16,0.73,0.65,-1.41,0.24,1.17,0.67,-0.05,0.42,0.69,0.19,-0.95,-0.50,0.93,0.11,-0.14,0.47
"ex1916",0.82,-0.05,2.92,3.50,2.16,3.90,6.09,4.73,3.99,3.80,2.46,1.64,-0.91,2.14,-0.08,-0.35,-0.42,0.41,0.37,-1.09,-2.36,-0.68,-0.54,-0.10,1.38,-0.03,1.44,0.03,-0.84,0.95,0.16,-0.76,-0.40,-0.30,0.27
"ex1917",-0.72,-0.66,1.22,0.56,0.23,0.45,2.88,5.47,2.40,3.27,5.17,3.52,3.60,3.39,0.46,0.41,1.06,-0.27,2.67,-0.67,-0.51,0.13,0.66,0.26,-0.31,0.75,1.14,-0.34,0.61,-0.48,0.00,-1.30,0.09,1.02,-0.37
"ex1918",-0.63,-0.18,1.07,1.44,0.21,3.01,3.75,3.25,4.69,3.86,5.56,5.17,5.02,2.16,1.84,1.42,-1.53,0.61,0.43,1.30,1.51,0.10,-1.02,-0.22,-1.35,-1.14,-0.93,-0.05,0.30,0.61,1.19,-1.64,1.43,0.27,0.83
"ex1919",0.23,1.20,-1.42,1.01,0.55,3.67,4.02,3.93,2.97,3.93,4.14,4.25,4.18,0.19,3.43,0.77,-0.96,-0.95,0.00,-1.67,1.39,-0.70,-0.11,-0.20,0.22,1.00,0.62,1.26,-0.28,-0.26,0.11,-0.11,1.63,0.27,0.06
"ex1920",2.48,-0.18,-0.17,-0.07,2.73,0.83,-1.12,0.61,1.91,3.53,5.17,3.38,2.94,5.37,5.46,4.98,2.26,2.46,2.40,1.70,0.05,0.41,0.53,-1.69,2.45,1.09,1.93,-1.04,-1.64,0.62,0.32,-0.56,0.09,0.04,-1.48
"ex1921",-2.25,1.62,1.96,2.36,4.10,5.27,5.22,7.07,2.77,3.34,3.33,1.72,0.15,0.83,1.16,-1.57,0.02,0.10,0.02,1.19,-1.02,-1.28,0.84,1.32,-0.49,1.05,0.15,0.82,1.05,1.69,-0.85,0.87,-0.52,-1.06,-0.16
"ex1922",-1.57,0.80,1.55,0.61,0.95,2.51,2.13,2.72,4.84,3.80,5.16,2.96,4.13,1.24,0.55,1.81,-0.10,-0.22,0.25,-1.94,0.39,-0.17,0.34,-1.89,-0.92,-1.29,-0.17,0.80,-0.11,0.57,-0.63,-1.02,-1.02,0.65,-1.59
"ex1923",1.12,0.03,-1.17,0.74,1.48,1.84,3.09,5.21,4.52,5.75,4.38,4.23,3.21,2.96,2.96,1.72,1.24,-0.42,-0.04,-0.07,1.46,-0.94,0.15,1.38,1.48,-0.52,-0.69,0.69,-0.13,0.15,-1.17,0.76,-0.68,-1.01,-1.41
"ex1924",-0.38,0.99,2.01,1.27,1.50,4.13,3.83,5.19,3.43,3.38,5.10,4.34,1.85,-0.61,0.11,0.44,0.00,0.38,-0.09,-0.19,2.93,-0.05,-0.57,-0.00,-1.43,-0.66,-0.96,-1.20,-0.65,-0.53,-1.22,0.74,-0.44,1.16,-1.48
"ex1925",0.82,-0.73,-0.16,-0.16,-1.28,0.23,1.58,0.52,2.15,3.67,2.72,5.19,3.72,2.23,4.49,0.53,0.67,0.90,0.11,1.15,-0.29,3.51,-1.26,1.73,-1.08,-0.31,-1.35,-1.28,-0.20,-0.78,0.65,-1.46,-0.13,1.81,-1.58
"ex1926",-0.11,-0.36,1.44,-0.40,-1.20,-0.59,0.54,1.29,0.36,0.89,1.51,2.50,4.03,4.66,7.25,4.28,5.08,3.51,1.34,0.85,1.26,0.25,0.05,-0.18,1.12,-1.09,-1.03,0.38,-0.71,-0.82,-0.91,0.09,-1.68,0.96,1.94
"ex1927",0.11,1.10,-0.42,1.92,2.19,1.18,2.68,1.72,0.92,0.92,1.67,3.00,0.91,3.85,5.01,2.58,1.81,0.46,1.05,-0.45,0.74,1.87,-0.66,0.18,0.96,-0.39,0.54,-1.05,0.85,0.58,-1.11,1.19,-0.17,1.37,-0.09
"ex1928",0.09,1.69,1.78,2.63,2.55,5.73,5.24,4.00,3.58,3.94,3.96,0.37,-1.24,1.65,0.24,0.06,1.63,0.99,1.35,-0.61,-0.79,-1.19,0.26,-2.14,-0.32,-0.45,0.25,-1.33,-0.25,0.37,-1.42,0.03,0.29,-0.77,-1.55
"ex1929",1.25,-0.66,-0.97,-0.27,-0.58,-0.63,-0.02,2.72,3.04,3.00,3.91,4.35,4.72,3.92,4.64,3.42,0.85,0.60,-0.14,-0.69,-0.52,0.55,-0.93,0.52,1.80,1.53,1.17,0.21,-0.56,-1.90,1.24,-0.75,0.01,0.63,0.69
"ex1930",-0.93,-0.54,-0.36,-1.62,-0.28,0.94,1.73,2.54,3.01,2.12,5.25,3.24,6.68,5.82,4.75,0.94,2.25,0.05,-0.55,-1.07,-0.71,-0.53,-1.62,-1.70,1.34,0.06,0.99,0.57,1.01,0.47,1.07,0.78,0.08,0.62,1.44
"ex1931",-0.04,2.31,-0.92,0.33,1.40,-0.16,0.81,-0.04,2.48,4.01,3.64,6.28,5.06,4.69,3.63,2.40,0.59,0.96,1.58,-0.19,-1.73,-0.14,-0.72,-1.55,-0.15,0.49,-0.12,1.03,-1.26,0.39,-2.20,-0.38,0.21,1.42,0.35
"ex1932",-0.51,1.59,1.20,2.79,1.50,2.90,2.68,2.69,3.85,4.57,5.52,6.31,4.76,2.74,1.49,-0.00,1.80,0.28,-0.17,0.46,0.10,0.49,0.13,-0.62,-0.90,1.74,-0.87,0.60,0.38,0.26,1.39,0.98,-0.34,0.03,-0.41
"ex1933",0.59,0.51,-0.87,0.89,-0.20,1.63,2.36,2.32,4.66,5.02,5.62,3.15,3.77,1.86,-0.19,0.42,1.65,0.93,-1.09,-0.83,0.80,-0.25,1.21,0.09,2.21,-0.40,-0.85,0.01,1.25,-2.04,0.71,-1.39,-1.25,-1.24,1.41
"ex1934",-1.99,0.78,-0.19,-0.88,-1.06,1.42,0.98,3.58,2.04,5.86,3.85,4.85,4.92,3.09,2.10,2.22,0.08,-0.22,-0.26,0.83,1.02,0.03,0.85,0.76,-1.03,0.66,1.03,0.33,0.64,-0.46,1.08,1.56,0.35,0.06,-1.12
"ex1935",0.37,0.21,-1.09,0.49,0.83,0.96,2.08,3.05,4.34,4.72,5.91,4.61,4.29,2.02,1.20,1.23,-2.19,-1.69,-1.90,-0.77,1.46,-1.08,0.10,0.07,-2.29,-0.72,0.48,0.28,0.23,1.06,0.11,-0.77,1.16,-0.16,-0.23
"ex1936",0.04,0.34,2.72,3.08,2.95,2.58,1.93,3.58,1.93,1.37,3.74,0.47,0.41,0.30,4.07,1.94,0.98,3.29,0.41,-0.90,1.47,-1.78,-0.28,-0.29,1.29,-0.65,0.61,0.34,0.74,0.60,-0.32,0.05,0.43,1.56,-1.62
"ex1937",0.79,0.33,1.51,2.14,2.55,3.73,7.20,3.23,4.61,3.39,2.88,1.14,-1.07,3.25,0.94,0.89,-0.37,-0.47,-1.54,-0.64,-0.44,1.91,-0.15,-0.40,-0.00,0.35,-0.99,-1.30,-0.57,0.13,0.82,1.35,1.89,1.63,0.76
"ex1938",1.28,0.07,0.63,1.51,3.56,1.56,4.24,3.40,2.79,2.85,2.73,1.31,0.39,2.26,2.39,-1.00,-0.94,1.93,1.58,-0.36,-0.07,1.61,0.49,2.58,0.08,0.04,-0.31,2.30,2.25,-1.61,-1.27,0.07,-0.04,0.01,0.41
"ex1939",-1.47,-0.78,1.98,4.60,4.72,3.71,3.88,5.40,4.94,3.58,0.10,2.41,-0.31,-2.17,-1.33,1.21,0.24,-1.07,-1.03,-1.75,-0.81,-0.51,0.11,0.21,1.16,-1.07,-0.18,-1.05,-1.27,0.11,1.00,-2.45,0.21,1.54,-0.17
"ex1940",-1.19,1.07,1.47,-0.47,-0.41,-0.89,-0.33,1.77,3.21,3.51,3.60,3.45,6.64,4.73,4.17,2.69,0.46,2.33,0.83,1.20,1.57,0.59,0.54,1.97,-2.12,0.11,0.93,-0.26,-1.17,-0.58,0.07,0.91,0.46,1.36,-0.91
"ex1941",0.46,0.54,0.17,-0.03,2.33,2.64,1.24,1.18,1.09,2.48,4.12,3.45,4.41,3.67,5.26,3.85,5.44,3.22,1.53,0.70,-2.43,-1.77,-0.28,-0.05,1.22,-1.57,0.58,0.16,-1.36,0.51,0.79,-0.10,1.39,-0.40,-0.26
"ex1942",0.85,-0.06,0.80,1.33,0.03,1.66,2.17,0.18,1.29,0.75,1.70,2.06,1.11,3.37,4.78,4.37,3.79,1.65,2.52,0.72,-0.08,-2.22,1.97,0.10,-1.35,0.72,-0.08,-0.35,-0.69,-0.01,0.99,0.08,-0.57,-0.88,-0.22
"ex1943",1.36,-0.39,-1.70,-0.84,2.50,-2.02,1.28,0.42,1.72,0.63,1.86,3.29,3.94,5.69,5.82,3.36,2.42,2.52,0.74,2.35,-0.63,1.39,2.00,-0.50,-0.07,0.71,0.16,-1.04,-1.51,0.40,-0.31,0.48,-1.55,-1.18,-0.86
"ex1944",-1.02,3.06,1.22,0.31,1.08,3.60,4.24,4.02,3.13,3.53,4.32,2.69,2.90,0.65,1.75,0.87,-0.46,-0.39,0.67,-2.73,0.59,-2.09,-0.17,-1.22,-1.23,-0.37,1.57,0.19,0.40,-0.64,0.87,-0.12,0.41,-1.58,0.15
"ex1945",-1.33,-1.67,1.98,1.21,3.04,3.08,2.90,3.98,1.20,3.03,3.79,2.82,1.41,4.61,3.02,3.00,2.87,2.05,1.88,2.01,-0.02,1.48,0.34,0.67,0.34,-1.39,0.44,-1.42,0.07,-0.69,1.17,1.57,1.05,0.26,0.53
"ex1946",0.91,-0.85,1.03,0.46,0.67,3.99,3.13,3.89,4.90,6.03,3.78,1.55,2.33,1.44,1.88,0.39,-2.10,0.26,1.52,-1.21,0.78,1.05,-0.61,0.57,1.64,0.36,-3.12,-0.57,0.70,3.40,0.44,-0.24,-0.38,-0.48,-1.07
"ex1947",-0.24,0.73,3.23,2.23,1.89,4.64,3.77,3.08,2.23,3.41,2.53,1.69,-1.22,1.38,2.16,0.90,1.23,0.89,-0.59,-1.17,-1.60,0.43,1.31,-0.66,-0.45,0.45,0.86,-0.61,0.01,0.99,1.76,0.54,0.74,1.26,-1.77
"ex1948",0.70,1.56,1.56,1.18,2.92,2.35,2.72,1.73,4.25,0.21,2.39,0.11,0.80,1.58,4.06,2.57,2.16,-1.92,2.08,-1.24,-2.12,1.45,1.02,-0.43,1.07,-0.12,-0.29,0.48,1.42,-0.33,2.23,0.29,1.93,-0.79,1.07
"ex1949",0.88,-1.01,0.52,0.17,0.69,1.29,2.26,4.51,5.26,5.86,4.44,5.76,3.20,1.76,1.22,1.06,-0.80,-0.52,-0.89,0.76,-1.70,0.53,-0.22,-0.15,-0.49,-0.26,0.41,0.75,-0.17,0.58,0.14,-1.75,0.79,-0.70,-0.14
"ex1950",-1.11,0.01,0.22,1.73,0.82,-0.76,1.95,3.11,2.52,0.62,3.67,2.48,4.76,4.90,4.87,5.12,3.98,2.64,2.57,2.32,1.67,-0.47,0.07,-0.53,-0.42,0.03,0.55,-0.62,-0.32,0.34,0.09,-1.41,-1.37,0.97,-0.13
"ex1951",1.20,1.20,0.16,0.05,-0.52,0.42,-0.71,-0.22,0.40,0.80,1.57,2.81,2.71,5.22,6.32,4.99,3.85,3.92,1.87,0.97,-1.04,1.82,0.64,-0.15,-1.59,0.46,0.60,-1.11,-1.79,-0.08,0.66,2.08,-0.64,-0.25,-1.07
"ex1952",-0.98,0.95,1.78,2.72,4.50,3.22,5.79,4.08,5.18,4.80,2.18,0.11,1.10,1.90,2.43,0.53,1.58,-0.23,-0.26,-1.20,-1.00,-0.99,0.20,0.39,-1.94,0.88,-0.49,-0.77,-1.56,-1.81,-0.92,1.76,-1.53,-0.12,0.24
"ex1953",0.57,1.30,-0.39,-0.19,-1.17,1.67,-0.54,0.91,0.06,0.82,4.01,0.98,3.75,2.93,6.11,5.10,3.73,3.26,3.11,-0.38,0.07,-1.17,-0.51,-0.52,0.22,1.32,-0.95,0.72,-0.81,-0.41,0.35,1.31,0.88,-2.23,-0.74
"ex1954",-1.99,0.89,1.98,-0.27,0.06,1.63,1.27,3.99,2.94,5.04,4.53,6.68,4.12,2.44,2.00,1.71,1.05,1.08,1.44,0.46,-1.23,2.38,-1.80,0.09,0.17,1.86,-0.99,0.78,0.07,-0.92,0.61,1.59,2.05,1.41,0.74
"ex1955",0.75,1.63,1.55,-0.20,1.07,2.48,3.51,2.28,4.33,3.64,4.40,3.75,3.06,2.35,-0.25,1.12,2.23,-0.64,1.24,-0.46,0.52,1.57,-0.72,-0.38,-0.31,0.81,0.60,-0.43,1.14,0.34,-0.74,1.29,-0.92,2.25,0.09
"ex1956",0.51,1.25,-0.68,1.51,2.13,1.41,4.03,3.53,2.69,0.88,2.03,3.41,1.30,1.48,1.23,4.01,0.37,1.14,1.25,0.16,-1.44,-1.02,0.22,0.12,-0.05,0.32,0.55,0.36,0.85,-0.25,1.00,0.30,-0.07,-1.67,-1.13
"ex1957",0.77,0.37,1.00,1.92,3.52,4.94,4.16,4.91,4.16,4.12,4.26,4.68,0.52,1.07,0.43,1.29,-0.96,-1.26,1.48,2.36,-0.26,0.46,-0.70,0.15,-0.76,0.64,0.09,-1.16,1.11,-1.54,-0.53,-1.01,-1.19,1.14,0.01
"ex1958",1.08,1.04,0.50,3.94,1.02,1.25,3.07,4.64,1.46,1.79,0.95,1.94,2.58,3.06,3.96,3.78,2.87,0.46,0.82,1.47,2.09,-1.00,-0.16,-1.08,-1.65,0.89,0.76,-0.59,-0.67,-1.05,1.15,1.08,0.32,1.81,-0.29
"ex1959",0.22,-0.47,0.39,0.54,-0.18,1.46,0.47,-0.81,2.05,2.15,3.14,2.73,2.97,2.38,4.88,2.94,2.39,1.27,1.77,0.73,-0.11,-0.14,-0.01,1.57,-1.26,-0.69,-1.54,-0.19,0.90,-1.07,-0.66,-0.47,-0.65,-0.75,-1.40
"ex1960",0.73,2.01,3.09,0.72,2.11,3.58,4.30,2.96,3.03,3.00,2.58,2.32,1.34,1.88,1.88,1.59,-1.15,-1.01,1.12,-1.81,-0.54,-1.54,-0.88,1.89,-0.92,-0.48,-0.21,-0.33,-0.06,-0.42,0.76,-0.89,1.00,0.01,0.44
"ex1961",-1.52,-1.71,-0.51,-0.67,-0.84,-0.72,0.60,1.26,0.35,0.70,3.97,3.73,4.36,4.74,4.63,3.62,3.33,1.77,3.46,0.41,0.51,0.20,-0.01,1.31,-1.45,-0.71,1.47,1.27,-2.45,0.14,-1.67,1.19,2.38,-2.95,0.16
"ex1962",-1.24,2.36,2.39,1.28,4.01,6.14,6.45,4.25,2.99,2.38,1.89,0.98,-1.04,0.97,1.17,0.88,-0.46,-1.84,0.37,-0.69,1.21,0.98,0.57,-0.54,-0.56,-1.49,0.88,-0.99,-0.95,0.70,1.64,-1.00,0.55,0.19,-0.19
"ex1963",1.62,-0.57,2.61,2.43,4.93,4.20,6.25,2.99,5.23,3.37,4.74,1.39,0.87,-0.53,-0.68,1.45,1.24,1.44,-0.74,-0.71,0.73,-1.75,1.74,0.36,-1.12,-0.02,0.94,1.61,-0.63,0.07,-2.44,0.14,-0.43,1.33,-0.01
"ex1964",1.24,2.80,1.81,2.98,3.06,3.79,5.82,4.99,2.93,4.52,1.63,0.30,1.61,0.39,0.25,1.89,-0.29,1.62,-0.87,-0.81,1.46,0.69,-1.82,-0.43,-0.95,0.03,-1.19,0.89,-2.44,-0.20,-1.12,0.62,1.25,0.10,-0.63
"ex1965",0.62,0.24,-0.21,2.31,3.69,4.16,4.14,3.62,2.19,2.78,3.16,0.95,2.15,0.41,2.10,1.66,2.29,0.52,1.24,0.01,-1.54,0.69,0.47,-0.02,-1.35,1.89,-0.34,-1.27,0.94,-0.83,0.66,0.37,0.89,0.84,0.09
"ex1966",-0.45,-0.21,-1.83,1.15,-0.90,1.08,1.03,1.42,2.20,3.76,5.08,4.32,3.09,4.60,3.51,2.44,1.09,2.01,0.75,0.25,0.65,0.69,-0.88,0.38,1.18,2.06,-0.34,0.90,0.01,1.66,-0.61,0.36,-2.74,0.22,1.07
"ex1967",0.13,0.64,3.70,3.44,1.82,3.40,6.17,5.05,4.85,1.92,1.99,0.87,0.01,-2.08,-1.24,-2.32,1.01,-1.14,-0.12,-0.48,0.16,-2.14,-0.22,-0.43,-0.11,-0.80,1.77,-0.27,-0.80,-1.88,-2.19,-0.23,-0.43,-1.74,-0.43
"ex1968",0.46,-0.94,2.47,4.13,5.51,6.93,4.69,5.18,2.96,2.17,0.20,1.38,-0.99,0.35,0.14,1.36,0.10,-1.15,-0.41,1.21,0.50,0.93,-1.17,0.05,0.25,-1.50,-0.43,-0.43,1.32,1.69,-0.26,0.78,-0.10,-1.30,0.85
"ex1969",-1.75,-2.32,0.54,0.52,-1.65,1.27,0.80,3.24,3.07,5.08,4.50,2.38,2.99,3.91,1.24,2.92,1.28,0.49,0.89,1.28,0.62,1.02,0.68,1.64,-0.49,0.56,0.54,0.58,-1.22,-1.19,0.23,-0.10,-1.61,1.20,-0.25
"ex1970",-0.98,0.70,1.17,3.42,2.96,5.44,6.14,4.63,4.70,2.21,2.61,0.90,1.25,0.49,1.79,-0.02,2.29,1.93,0.67,2.22,-1.65,-0.35,0.09,-0.46,0.05,-2.39,-0.26,0.24,-1.54,-0.28,0.01,0.19,-0.30,-1.77,-0.01
"ex1971",-0.81,0.59,0.81,1.17,1.39,4.17,3.84,3.33,5.01,4.50,4.25,3.16,1.27,1.49,1.69,1.94,-0.50,-0.69,-0.48,0.64,-0.30,-0.32,2.46,-0.27,-0.95,-0.55,-0.68,-0.74,-0.70,0.30,-1.04,-1.12,-0.61,1.04,2.62
"ex1972",0.91,0.46,0.73,2.34,5.53,3.89,3.26,2.01,4.19,1.57,0.84,1.17,1.20,1.93,0.03,0.96,0.47,0.96,-0.38,-0.47,1.19,0.20,0.82,1.24,0.54,-1.63,-0.16,-0.64,-0.56,1.73,-0.23,-0.40,-0.12,-0.45,-2.02
"ex1973",-0.44,-0.21,0.75,3.64,5.38,5.18,6.40,5.72,1.95,4.78,1.53,0.76,0.46,-1.38,0.72,1.67,1.38,1.03,-0.62,0.84,0.10,-0.78,-2.10,-0.32,1.16,-0.08,0.41,0.52,-0.69,-1.19,-1.12,0.97,-0.59,-1.31,2.15
"ex1974",-0.33,-0.43,-1.99,1.43,-0.10,-0.02,2.43,4.21,4.45,4.82,5.04,4.29,4.21,5.05,1.36,0.20,1.05,0.12,-0.87,-0.07,1.38,0.97,0.73,1.32,2.18,0.97,0.49,0.89,-0.67,-0.11,0.38,0.51,0.86,-0.83,-2.62
"ex1975",0.87,-0.81,0.09,0.55,-2.19,-2.05,0.68,0.38,0.68,2.42,4.04,4.27,4.18,3.24,5.72,4.09,3.01,3.52,1.98,0.70,-0.41,1.01,-0.96,0.36,-0.10,1.00,-0.49,1.27,0.09,2.04,0.33,-0.11,-0.64,0.79,0.60
"ex1976",-1.22,1.05,2.18,2.14,1.54,6.35,5.33,4.69,3.67,1.76,1.60,2.68,3.49,2.81,-0.55,0.23,-1.10,-0.21,-0.06,-0.48,-0.23,-1.69,0.63,-0.62,0.90,0.69,0.35,1.32,1.02,-0.94,-0.41,1.22,1.21,0.28,0.01
"ex1977",-1.66,1.99,-0.60,4.16,1.73,3.52,5.69,5.52,5.02,1.91,3.55,3.19,1.30,0.41,0.25,0.27,0.85,-0.31,-0.09,-1.91,1.26,1.69,-1.17,-0.43,-2.14,-0.11,0.73,1.83,-0.83,0.67,-0.66,0.59,-1.04,-0.04,1.63
"ex1978",0.78,1.36,2.06,1.68,0.91,2.44,1.49,3.39,0.77,2.25,2.69,3.16,2.45,2.28,2.77,1.78,1.28,1.39,0.38,0.15,-1.82,-1.66,-0.71,-0.11,-0.99,-0.37,1.15,0.71,-1.48,-0.68,-1.58,-0.80,-0.42,0.16,1.17
"ex1979",-0.42,-0.84,-0.27,0.71,-1.43,-0.48,1.63,-0.61,1.66,2.06,1.31,3.39,5.54,6.25,4.57,3.52,4.13,2.28,2.48,0.07,-0.98,1.09,0.70,-0.30,0.24,-0.88,0.32,0.83,1.11,0.03,-2.20,0.20,0.03,0.02,0.29
"ex1980",-0.15,0.60,2.03,0.95,2.86,5.39,7.94,6.01,4.66,4.10,1.75,1.98,1.51,-1.23,0.75,2.22,-0.73,-0.60,-0.74,1.69,0.69,1.92,1.94,1.52,-0.35,0.49,2.37,0.09,1.21,-1.60,0.56,-0.37,1.11,0.09,0.44
"ex1981",0.60,0.73,1.79,0.05,1.07,1.52,2.92,2.10,4.06,3.24,3.87,3.56,4.16,1.16,0.25,-0.12,-0.91,0.22,-0.14,-0.08,0.93,1.06,-1.63,1.08,-1.61,-1.20,-0.19,-0.24,0.15,-0.60,-0.88,0.16,-0.20,-0.45,0.86
"ex1982",-0.42,1.15,0.22,-1.07,1.81,2.99,5.43,4.84,5.08,4.61,2.96,2.91,2.10,2.30,1.52,0.75,0.43,2.39,-0.45,-1.01,0.51,0.30,0.39,-0.00,-2.12,0.50,-0.16,0.51,-1.20,0.20,-0.19,0.83,-1.15,0.93,-0.09
"ex1983",1.19,0.93,3.41,2.65,4.65,1.17,6.28,2.98,4.99,3.31,1.12,1.08,0.34,-0.09,0.75,1.31,0.23,0.39,0.55,-1.21,-1.00,0.23,1.45,-0.30,1.64,1.20,0.01,-0.51,0.26,-0.41,-0.82,-0.94,-0.45,1.31,0.22
"ex1984",0.79,0.59,-0.93,-0.69,-0.65,-0.15,2.05,1.16,2.61,4.56,3.81,3.56,3.23,3.88,4.15,2.39,1.61,-0.14,-0.29,-0.12,-2.35,0.94,1.19,0.42,1.07,0.19,-0.25,-0.27,-0.54,0.77,-0.27,-1.01,0.23,1.42,0.80
"ex1985",2.40,-0.20,0.35,2.42,1.07,4.69,4.31,4.74,5.16,3.10,3.35,1.36,2.10,1.99,0.34,0.88,0.66,-2.58,-1.77,1.58,1.46,-0.14,-1.06,-0.11,-0.24,-1.27,1.14,1.18,-0.06,0.46,0.04,-0.66,1.52,-1.21,1.31
"ex1986",-1.59,-1.03,-0.68,-0.19,0.39,1.63,0.50,0.91,1.68,0.96,1.95,3.79,1.47,3.79,4.45,2.91,4.47,3.14,2.00,0.37,0.76,1.09,-1.63,-1.89,0.31,-0.91,0.51,1.00,0.18,2.17,0.79,0.23,-0.20,1.31,1.69
"ex1987",0.29,0.55,-0.58,0.76,2.30,2.72,2.02,2.36,1.23,-0.71,2.21,2.59,1.59,1.83,5.43,1.79,2.75,1.80,-0.91,1.06,-0.72,1.33,-0.93,1.17,2.29,0.51,-1.27,0.72,0.52,-0.51,-0.11,-0.34,-1.33,-1.43,-0.19
"ex1988",-0.76,1.49,1.48,2.07,2.29,3.06,3.12,3.01,4.83,3.70,4.35,4.40,2.07,1.30,1.99,1.11,-0.30,-0.67,-1.03,-0.84,1.04,0.80,-0.91,0.45,1.41,-0.35,0.28,0.49,0.14,-0.69,0.23,-0.98,-0.39,0.83,1.85
"ex1989",0.18,-0.56,-1.64,-0.57,-1.51,0.34,1.97,3.33,2.86,1.42,6.77,5.18,4.88,2.56,3.84,2.76,1.56,1.30,2.78,-0.17,-0.21,1.70,-1.44,-1.32,0.21,-0.55,-0.89,-0.79,0.54,0.40,-1.03,-0.98,0.36,0.15,-0.14
"ex1990",-1.52,0.18,2.48,1.92,2.75,4.09,3.32,4.66,2.98,6.34,2.47,1.10,1.77,0.83,-0.81,0.77,0.08,-0.36,-0.88,-0.63,0.70,0.96,0.94,0.03,-1.12,-0.32,0.89,-0.27,-0.77,0.59,0.05,-0.80,0.14,1.66,-0.31
"ex1991",0.86,0.18,-0.48,0.32,0.63,1.50,0.09,0.16,2.21,4.30,3.78,4.28,3.23,4.41,2.55,3.31,2.19,1.29,0.41,2.05,1.25,-0.22,-0.37,0.20,-0.61,0.26,-0.19,-0.04,0.57,1.79,-0.37,0.73,-0.52,-0.41,0.66
"ex1992",1.40,-1.53,1.34,0.79,0.85,2.54,0.57,0.09,3.91,4.45,5.35,3.42,3.77,1.88,3.54,3.65,1.91,1.14,-0.03,0.51,0.13,0.72,1.46,0.44,-0.66,-0.77,-0.82,0.25,0.67,-1.52,1.07,0.61,0.08,-0.21,-0.97
"ex1993",-0.59,-1.66,0.31,-1.69,-0.10,0.21,1.62,3.15,2.06,2.30,4.75,2.15,6.54,2.51,4.45,1.04,2.52,2.07,1.46,-0.61,-1.41,-0.39,1.12,-0.80,-0.85,0.77,-0.55,-0.83,0.27,0.32,-0.36,-1.10,0.16,0.24,-0.08
"ex1994",0.19,1.22,-0.14,1.57,1.01,2.36,2.23,4.97,5.40,4.59,6.03,4.33,1.24,1.89,1.72,1.78,-0.06,0.88,1.33,-0.30,0.55,-0.57,0.54,1.15,0.85,-1.65,0.86,0.03,-0.16,0.73,-0.38,0.63,1.88,-0.46,0.29
"ex1995",0.90,-0.16,-0.63,0.91,0.35,-0.04,1.18,0.61,0.25,2.27,4.50,3.41,4.34,5.22,4.44,4.13,4.28,3.91,2.08,1.08,-0.75,-0.18,0.42,0.40,-0.13,0.88,-0.49,0.66,0.83,0.24,0.99,-0.13,0.10,-0.69,-2.42
"ex1996",-1.10,-1.13,1.53,0.13,1.45,1.62,3.44,2.16,3.88,3.47,3.06,3.33,2.57,3.04,2.14,-0.07,0.17,-0.67,-0.43,-0.42,2.13,-0.32,0.06,0.90,0.42,0.06,0.30,-0.61,0.11,0.17,-1.36,0.42,0.31,-0.69,-0.91
"ex1997",-2.06,1.67,2.62,3.97,4.34,4.69,6.80,5.61,3.92,2.72,0.16,-0.37,1.75,1.69,0.12,3.05,-0.37,-0.02,1.11,-0.17,-0.49,-0.52,1.20,0.58,1.54,1.17,1.66,0.28,-1.18,0.61,0.67,-0.07,1.00,-0.35,1.08
"ex1998",1.27,0.68,-0.12,2.05,3.76,6.14,7.73,5.45,3.50,1.53,3.22,2.17,-0.27,-0.46,0.87,0.70,0.53,-0.55,0.15,-1.86,-0.54,0.53,0.74,0.06,2.05,-0.85,0.05,-0.44,-0.88,0.87,-0.38,0.57,-0.89,0.24,-0.30
"ex1999",-1.25,2.28,-0.34,1.26,2.93,2.15,2.05,1.23,2.15,1.10,2.20,1.60,1.74,4.42,3.55,2.27,1.39,1.53,1.20,-0.08,1.39,2.10,0.34,0.68,-0.62,0.66,-0.10,0.83,0.49,-0.86,-0.90,1.62,-0.06,0.10,0.05
"ex2000",-0.75,0.65,-0.98,0.61,-0.37,1.88,1.89,3.70,2.36,3.36,4.80,4.16,4.48,1.39,0.87,1.76,1.83,0.80,2.50,-0.23,0.26,1.77,0.59,0.67,-1.82,1.19,-1.15,0.93,-0.81,0.88,0.06,-0.66,-0.89,1.94,0.41
"ex2001",0.86,-2.33,0.40,1.94,0.52,3.46,2.23,3.84,3.94,5.02,5.90,3.03,2.97,0.80,1.22,1.78,1.44,0.92,-0.02,0.69,-1.30,-0.81,0.98,2.68,0.27,-1.17,0.77,-0.94,0.79,0.92,-0.62,1.67,0.50,-0.70,-0.39
"ex2002",-0.17,1.75,0.81,0.90,-0.07,1.09,0.37,4.29,4.35,5.45,5.12,2.49,3.02,4.03,3.03,2.04,3.07,-1.33,0.67,0.28,0.74,-0.57,-0.16,-0.45,-1.24,-1.86,0.41,1.64,-1.74,-0.65,1.49,-0.96,0.96,0.17,-0.68
"ex2003",-0.76,0.46,0.99,0.54,2.60,5.11,7.10,5.17,3.84,2.74,2.89,-0.01,1.07,1.57,0.80,-0.09,0.45,2.27,0.37,0.45,-0.66,0.97,-1.07,2.08,0.17,-1.70,-0.26,1.07,0.59,-0.04,-2.17,-0.58,1.18,-0.81,-0.16
"ex2004",0.37,-0.64,1.08,2.48,2.79,3.56,5.22,4.94,4.28,3.33,0.78,0.93,1.22,2.11,1.72,-0.22,-1.13,0.09,0.44,-0.75,-0.10,0.21,0.28,0.17,-0.35,-1.21,1.01,-0.41,0.25,0.15,0.67,-0.67,1.27,0.02,-1.43
"ex2005",0.61,0.70,2.56,2.38,2.48,4.00,2.58,3.50,3.45,3.84,2.95,1.28,0.15,0.44,1.40,2.57,1.59,0.61,1.03,1.10,-2.23,-0.90,0.76,1.21,-1.40,-0.65,-0.73,0.23,0.63,-0.06,-0.79,0.91,-0.17,0.88,-0.00
"ex2006",0.46,1.29,3.96,2.46,4.50,3.90,5.34,5.52,4.96,3.47,3.44,1.75,2.21,0.29,1.11,0.35,0.44,0.71,0.20,-0.91,2.36,1.64,-0.08,0.31,0.58,2.08,0.71,-0.16,-1.05,-0.70,1.02,0.20,0.29,-0.65,0.30
"ex2007",0.89,1.95,0.82,2.06,1.35,1.52,0.06,2.16,1.78,0.67,1.31,0.21,3.05,4.79,4.03,3.44,1.93,1.22,1.97,0.87,-1.26,-0.12,-0.20,1.43,-0.59,0.18,0.01,-1.23,0.96,1.23,-0.53,1.43,0.30,-0.14,0.65
"ex2008",1.45,0.48,2.08,1.82,1.84,3.40,6.45,5.09,1.73,3.07,3.68,2.17,1.37,0.17,-0.94,-1.16,-1.11,-0.31,0.84,1.77,-0.79,-2.13,0.32,1.05,0.61,-0.66,0.63,1.13,-0.96,-0.50,0.49,1.17,0.04,1.95,0.74
"ex2009",2.11,-0.39,2.19,4.25,2.87,4.98,5.68,1.68,2.32,1.43,4.43,1.77,1.84,0.83,1.44,2.13,0.17,0.46,0.53,-0.41,-0.74,-1.55,-1.30,0.55,-0.39,-0.66,0.28,0.08,0.51,2.20,-0.76,0.80,-0.07,1.17,0.63
"ex2010",-0.77,-1.81,2.21,1.20,3.29,3.94,4.97,2.76,4.70,4.40,4.04,2.69,2.02,0.87,-0.84,2.20,1.12,-0.64,0.59,-0.67,-0.26,-0.42,1.95,-0.78,-0.14,0.51,-0.81,0.96,-0.66,0.29,-0.86,1.32,-0.40,1.27,0.65
"ex2011",0.29,0.37,4.02,0.15,3.48,4.11,4.24,6.66,2.41,3.46,3.74,-0.90,-0.20,-1.70,-0.45,-0.19,0.28,-0.02,2.25,0.17,1.57,-1.80,-1.84,0.33,-0.17,-0.25,2.88,0.56,0.10,0.17,-0.40,0.94,0.38,0.41,-0.57
"ex2012",0.56,-0.98,0.03,-0.25,-0.26,-1.19,2.03,0.33,2.51,2.93,3.19,6.52,2.26,4.49,4.20,3.40,3.33,2.52,1.09,-0.24,-1.29,0.71,0.12,0.37,-0.51,0.18,0.28,-0.14,1.84,-0.65,0.30,0.93,1.26,0.57,1.37
"ex2013",1.04,-0.86,-0.12,-2.08,0.70,2.18,1.36,4.17,4.89,4.24,5.77,3.80,3.26,2.00,1.99,1.36,0.34,0.33,0.35,0.53,0.04,-0.28,0.10,-0.70,-0.05,-0.51,-1.65,0.35,2.23,-0.34,-0.58,-1.73,-0.49,-0.08,-0.49
"ex2014",0.66,0.20,0.87,0.43,-0.06,-0.14,1.57,-0.37,0.20,0.40,1.67,3.46,2.09,3.27,5.24,4.47,4.37,2.54,0.51,2.66,-1.87,0.85,-0.24,-0.28,-2.71,-1.72,-0.72,-1.08,0.56,1.56,-0.21,0.18,1.42,1.60,0.58
"ex2015",-0.10,-0.67,-0.55,-0.23,-0.52,1.81,3.88,3.06,2.69,5.48,5.88,5.36,3.06,3.63,2.41,-0.29,-0.12,-0.56,0.39,-0.99,0.94,-0.02,1.24,0.30,-1.06,0.98,1.58,0.80,1.72,-0.27,0.86,-0.24,-2.16,-0.02,0.64
"ex2016",0.62,-0.33,2.39,1.75,3.78,4.82,5.78,4.17,4.78,2.97,2.70,1.93,0.85,0.23,1.34,0.72,0.88,-1.31,1.50,0.71,1.65,-1.89,-0.01,-0.13,-0.35,0.09,-1.20,-1.69,0.34,-0.41,-1.05,-0.68,2.24,-0.53,0.06
"ex2017",0.56,2.12,0.91,-0.30,-0.70,0.97,0.93,0.60,2.29,1.59,3.24,3.70,4.08,4.59,4.81,2.84,3.10,2.32,2.03,1.37,-0.75,-0.15,-0.87,0.65,0.37,0.90,0.10,0.04,0.06,-0.40,0.55,-0.74,0.14,0.92,-0.42
"ex2018",-1.86,2.49,-0.63,-0.34,1.68,-1.56,1.60,-0.07,-1.07,0.88,1.43,2.31,3.18,3.22,4.92,3.33,2.33,4.05,2.64,1.02,0.06,-0.20,0.13,1.20,-0.79,-1.23,1.32,-0.42,-0.11,0.01,-0.51,-0.07,-0.39,-1.47,-0.03
"ex2019",-0.61,0.55,0.86,-0.17,0.19,3.90,2.14,2.94,3.43,4.63,5.45,4.04,3.14,4.06,1.88,2.44,-0.89,1.00,0.74,-1.81,-0.22,-0.13,-0.66,1.14,0.35,-0.28,-0.68,-0.18,0.85,1.67,0.47,0.11,1.12,0.82,0.34
"ex2020",0.89,-0.75,-0.15,-0.52,-0.86,-1.14,-0.33,-0.25,0.47,1.90,2.34,2.86,3.80,4.11,5.65,4.01,3.06,2.69,2.87,0.17,-0.84,0.70,1.57,-0.68,-0.62,1.01,0.66,0.35,-0.26,-0.84,-0.71,0.76,0.96,0.01,-0.10
"ex2021",-1.72,-0.85,-1.36,1.07,-0.10,-0.63,0.83,-0.84,-0.18,1.83,4.19,5.68,3.72,4.50,6.47,3.37,3.12,2.65,0.59,2.07,-0.48,-0.83,-0.06,1.47,-1.28,-0.23,1.34,0.67,0.89,-0.32,-0.92,-0.07,1.23,-0.25,0.69
"ex2022",1.60,0.10,-0.06,-1.05,-1.35,-0.05,-0.06,0.66,4.48,3.06,3.46,4.26,3.43,6.21,4.17,5.01,3.85,2.19,0.89,-0.64,-1.28,2.21,0.15,1.37,2.20,-0.84,-1.08,-0.34,-2.20,-0.49,2.30,1.87,0.55,-0.97,0.95
"ex2023",-1.48,1.96,3.44,3.39,2.86,3.72,5.69,5.40,3.69,2.10,1.90,1.64,0.16,0.36,-0.48,2.57,0.83,-0.89,-0.79,0.49,1.70,-0.65,0.58,1.05,-0.80,0.83,0.43,0.51,-0.32,0.14,-0.49,0.25,-0.14,0.34,-0.43
"ex2024",1.11,0.71,0.03,2.38,1.62,2.54,3.12,2.09,1.49,2.30,1.42,2.57,2.99,1.02,3.68,3.87,3.00,1.77,-1.99,-0.01,1.14,0.25,0.50,-0.03,-0.07,-0.23,0.99,-1.05,-1.33,-0.84,-0.87,0.02,0.17,-0.44,-0.19
"ex2025",-0.25,1.07,3.97,1.06,4.32,2.59,5.22,3.98,3.64,2.88,2.39,2.67,1.76,-1.06,0.15,0.19,-1.25,0.27,-0.46,0.59,-0.44,-0.29,-0.96,2.51,-0.82,1.48,0.97,1.14,1.72,0.31,0.54,-0.36,-1.27,1.21,-0.37
"ex2026",-0.11,0.42,3.26,2.24,1.05,2.70,2.95,3.35,5.23,3.23,5.09,1.25,1.72,-0.30,2.40,0.71,-1.27,0.89,0.83,1.16,0.21,-2.34,1.30,-0.99,-0.46,1.00,0.52,-1.06,0.03,-1.36,1.56,1.23,-0.88,-0.41,-0.33
"ex2027",1.87,-0.33,-0.69,0.99,0.41,0.31,0.21,1.63,2.26,2.97,3.48,4.25,3.13,4.33,2.57,0.04,0.78,1.07,0.95,0.51,-0.54,2.11,-0.75,-0.05,-0.60,-2.25,0.80,0.31,0.19,-0.73,-0.29,-0.27,-1.46,-0.51,-1.62
"ex2028",1.33,1.15,1.89,1.67,3.69,3.85,3.88,4.14,3.57,2.13,1.81,1.47,-0.22,0.21,1.89,1.28,-1.53,-0.49,2.24,0.39,0.21,1.44,1.29,-1.34,0.07,-0.33,0.19,-0.07,-1.10,-0.19,0.41,-2.35,-0.19,2.86,1.93
"ex2029",-0.11,-0.30,-0.82,1.91,1.72,-0.61,0.20,-0.25,-0.38,-0.11,4.22,4.12,4.88,6.69,5.39,6.24,3.17,3.01,1.55,1.48,-0.22,-0.21,-0.31,0.24,-0.22,-0.14,0.95,-0.23,0.38,1.98,0.37,1.59,-1.49,-0.92,0.75
"ex2030",0.30,-1.28,-0.40,0.56,1.90,1.41,1.32,0.33,1.20,1.34,1.43,3.81,2.22,3.28,7.17,5.37,2.52,4.82,1.23,2.15,-0.29,0.59,-0.22,0.76,-0.46,0.75,-0.90,0.12,0.44,-0.61,2.04,0.10,-1.51,1.44,0.22
"ex2031",-0.93,0.89,0.68,1.38,0.47,1.54,0.42,0.66,1.00,1.03,2.89,1.92,3.52,2.58,5.20,3.49,3.41,3.89,2.55,0.31,1.11,-0.22,-1.50,-1.03,-0.48,-0.81,-1.56,-0.84,1.25,0.61,1.45,-0.78,-0.91,-0.49,1.04
"ex2032",-1.74,2.01,-0.03,2.21,3.03,2.55,3.30,1.05,3.71,0.98,1.98,3.84,2.52,3.56,3.15,3.78,2.53,0.88,0.01,0.95,0.10,0.94,-1.49,-0.16,-1.41,-1.42,2.07,-0.05,0.12,0.44,0.31,-0.50,0.60,1.61,-0.02
"ex2033",1.68,1.06,0.44,3.66,2.08,1.62,3.60,3.46,3.72,-0.57,2.35,2.39,2.01,2.58,3.60,0.51,2.35,1.54,0.13,-0.15,-0.53,-0.16,0.17,1.09,-0.66,-0.73,-0.65,0.98,-0.92,-1.72,0.51,0.70,0.71,-0.27,-0.03
"ex2034",0.21,0.30,2.35,3.73,3.26,5.96,6.03,4.74,4.53,2.40,1.62,2.28,-0.78,0.46,0.24,0.80,1.23,-0.27,-0.58,-0.63,0.03,-1.43,-0.65,-0.31,-0.94,1.74,-1.74,-0.18,0.84,-1.96,-0.62,0.47,0.55,-0.09,0.79
"ex2035",2.34,2.09,3.15,1.82,3.64,3.70,5.08,4.48,3.95,4.09,3.49,2.40,0.36,0.43,0.83,0.55,0.16,0.66,-2.22,-0.77,0.53,-1.63,1.12,0.60,1.50,0.76,0.70,-0.25,-0.21,0.03,-0.49,0.96,-0.55,-0.30,0.32
"ex2036",-0.09,-0.43,-1.19,0.93,0.07,1.65,1.69,3.95,5.29,5.80,6.78,3.06,2.04,3.37,3.91,1.38,0.01,-1.34,0.80,-1.16,0.13,-1.22,-1.84,-0.30,1.11,-1.27,1.44,-2.75,1.51,-0.09,-0.20,1.37,1.21,0.96,-0.76
"ex2037",0.66,-1.26,0.87,2.38,2.68,3.58,2.26,2.46,1.45,-0.12,1.73,1.74,2.44,2.06,2.17,3.29,2.06,0.65,1.88,1.85,-0.50,-0.49,0.10,-0.28,-0.31,0.83,-0.46,0.28,-0.18,-1.05,1.32,0.82,-0.68,1.13,0.91
"ex2038",0.26,1.55,0.60,-0.11,1.55,4.09,2.32,1.61,2.68,2.13,2.41,1.00,3.37,3.61,5.16,2.01,1.48,1.55,2.66,-1.40,0.17,0.64,1.68,-1.56,-0.97,0.20,0.16,0.28,0.87,-0.74,-0.50,0.14,0.21,0.60,-1.15
"ex2039",0.86,1.63,-1.37,-1.31,0.11,1.78,1.61,1.23,0.18,2.77,5.08,3.29,3.76,4.81,3.45,1.61,3.19,0.51,1.08,1.19,-0.17,-1.17,0.28,0.09,0.86,-0.45,-2.20,-0.98,0.94,0.71,-0.65,-0.09,-2.34,-0.09,-1.18
"ex2040",-0.07,0.81,0.14,-0.16,-0.26,1.68,0.05,1.73,-0.52,0.28,2.78,3.70,4.21,4.70,6.04,4.46,3.61,1.75,4.47,0.89,-2.19,-0.50,2.10,-0.68,0.58,-0.74,-1.18,1.02,-0.00,-1.75,0.62,0.83,-0.19,0.07,-0.71
"ex2041",0.74,-1.00,1.97,-2.47,1.90,0.54,1.61,1.01,3.49,4.52,5.20,3.54,2.98,4.47,1.31,1.67,1.01,-2.43,0.94,2.15,-0.34,0.32,-0.15,-0.70,0.02,1.05,-1.45,-1.04,1.16,-0.43,0.42,0.03,0.50,-0.98,1.53
"ex2042",-2.35,-1.52,0.10,-1.14,-0.50,-0.12,0.95,1.90,1.99,2.22,2.86,4.32,4.68,3.71,4.83,1.90,3.51,1.64,0.37,-0.36,0.67,-1.31,-0.38,-0.32,0.45,-1.84,1.18,1.14,-0.87,-0.05,1.68,1.10,-0.69,0.51,0.28
"ex2043",-1.21,-0.60,0.84,1.33,0.22,1.60,0.15,1.34,0.87,-0.58,1.61,2.80,4.31,4.96,5.13,3.14,1.05,1.77,1.15,0.08,-0.62,0.16,0.26,-0.31,0.55,0.49,0.83,-0.28,-0.28,-0.30,0.93,0.91,-1.66,0.59,1.43
"ex2044",-0.12,0.47,0.09,1.55,0.07,2.08,3.55,2.73,4.41,3.96,4.42,3.05,3.06,2.28,1.32,-0.63,0.21,-1.20,0.54,-0.64,1.41,0.43,-0.14,0.95,0.16,-0.06,-1.17,0.78,-1.76,-0.36,0.18,-0.27,1.55,-1.10,-0.08
"ex2045",-1.51,2.01,1.51,-0.79,0.98,-0.47,-0.03,0.16,0.41,1.81,1.53,3.97,4.42,5.95,6.08,4.64,3.81,3.81,2.33,2.01,2.56,0.46,0.69,1.71,-0.08,-0.41,-0.25,1.00,0.23,-0.36,0.53,1.04,-0.41,-1.70,1.02
"ex2046",-0.70,-0.83,1.29,0.39,-0.77,1.82,0.91,2.79,2.70,5.64,5.06,4.56,2.87,2.07,3.97,0.41,-0.86,0.19,-1.28,0.64,0.99,-0.66,0.41,-0.39,-0.95,1.53,2.02,1.99,-1.68,-1.30,-0.26,0.79,-0.39,0.20,-1.35
"ex2047",-0.02,0.10,0.15,3.49,4.32,4.87,7.01,4.65,5.13,4.43,3.18,0.54,-0.42,-0.56,1.43,-0.08,1.04,0.90,0.30,-1.17,-2.00,-1.70,0.03,0.06,0.05,1.32,1.39,1.69,2.08,-3.06,-0.22,-1.60,-0.82,0.10,-0.08
"ex2048",1.19,-0.22,0.92,0.97,1.74,2.61,4.30,5.58,3.19,3.87,3.30,1.64,0.43,1.76,0.32,1.87,1.25,1.00,0.53,1.27,1.06,-1.05,-0.55,-0.29,-0.21,-1.54,-0.44,0.12,1.58,-1.31,-0.49,0.29,-1.11,1.76,0.46
"ex2049",0.70,0.37,-0.91,1.57,0.13,-0.87,3.59,1.85,2.05,4.59,3.61,4.87,4.13,3.56,3.98,1.93,2.36,1.39,1.31,1.34,-0.54,-0.03,-0.45,0.08,-0.93,-0.20,-1.69,-1.65,-0.73,0.57,-1.33,-0.81,0.11,0.02,-0.24
"ex2050",0.93,0.91,-0.95,-1.16,-1.48,1.88,-0.95,1.93,3.01,0.96,2.52,3.23,5.70,4.83,6.13,4.68,1.74,2.26,0.57,1.04,-0.75,-1.72,-0.21,-0.05,-0.76,-1.13,0.45,0.38,-1.56,-1.20,-0.95,1.79,0.36,0.82,-0.69
"ex2051",0.30,0.48,0.29,0.27,-0.21,-0.62,1.78,0.14,1.73,0.58,2.13,4.75,4.59,2.45,5.50,2.66,1.25,1.53,3.67,1.13,-1.25,1.54,-0.39,0.56,-0.86,-0.67,-1.76,0.52,-1.59,1.68,0.75,0.89,-0.31,0.05,-1.97
"ex2052",-0.42,-0.03,0.34,1.96,1.26,2.00,1.32,2.29,2.40,1.21,2.47,2.55,2.62,3.94,4.67,4.16,2.87,1.86,1.58,1.66,3.02,-0.15,0.65,0.37,-0.27,-0.16,2.36,1.08,-0.85,0.37,0.40,0.98,0.83,0.10,-0.06
"ex2053",-1.47,0.14,0.00,0.73,2.11,0.73,1.57,0.37,0.42,0.86,1.59,3.31,4.28,5.90,5.71,4.73,3.45,4.72,1.53,0.40,1.93,0.84,-0.46,-0.14,0.37,-0.09,0.21,-1.30,-1.51,0.23,-0.65,-0.11,0.66,0.74,-0.51
"ex2054",-0.31,1.60,3.89,2.36,4.01,4.14,5.77,3.23,4.56,2.93,2.09,1.04,0.35,1.02,-0.71,-0.72,2.07,0.51,-1.32,0.80,1.19,-3.06,0.03,0.61,-0.02,0.43,0.34,0.20,0.03,-0.56,-0.99,0.02,1.78,2.16,0.29
"ex2055",-0.65,0.41,0.05,1.26,0.38,-0.87,-0.45,0.98,0.25,1.29,2.98,4.26,4.94,3.39,5.75,4.29,3.82,2.92,0.81,-0.15,0.04,-0.40,-0.12,-1.07,0.83,-0.82,0.41,-0.16,0.44,-0.53,2.62,-0.86,0.13,-0.05,0.57
"ex2056",-0.04,1.62,1.01,1.25,-0.27,2.33,2.09,1.94,1.46,1.43,3.27,2.27,2.86,2.64,4.88,1.95,4.81,1.66,2.74,0.73,-1.16,1.57,-0.37,0.85,0.54,-0.63,-0.88,-0.28,-0.31,-1.16,0.42,1.33,0.91,0.31,-0.46
"ex2057",-0.47,-0.71,-0.34,1.96,0.41,1.61,0.40,-0.11,-0.65,2.00,1.82,3.72,3.98,5.36,6.57,2.95,3.40,1.64,1.85,0.80,-0.45,-1.49,-0.61,0.32,2.07,-1.49,-0.16,-0.58,1.53,1.36,1.75,1.46,-0.06,-0.66,-1.33
"ex2058",0.31,-1.91,0.58,1.48,-0.95,2.09,-1.03,-0.22,2.07,2.98,2.39,2.42,4.67,4.43,6.68,4.93,2.11,2.70,0.98,-0.33,-0.30,-0.27,-0.91,0.07,0.61,0.91,-0.34,-0.16,-0.59,-1.34,0.23,2.88,-0.70,-2.29,0.18
"ex2059",-0.58,-0.00,1.61,-0.28,0.51,3.13,3.88,2.60,4.39,4.11,6.36,3.69,3.44,-0.74,-2.03,0.90,-0.62,0.94,0.15,1.00,1.01,-1.40,0.05,-0.01,-0.06,-0.07,-1.14,1.59,-0.07,0.91,0.04,0.75,0.88,-0.09,0.01
"ex2060",-1.39,-1.96,1.09,2.00,0.26,2.70,0.39,1.64,2.17,3.01,1.87,2.35,2.36,1.81,3.30,3.39,2.65,3.34,2.65,0.01,0.25,0.77,-1.78,0.08,0.37,-0.18,1.08,0.81,0.41,-0.36,0.58,-1.07,-0.93,-0.94,0.03
"ex2061",1.38,0.00,-1.00,-1.00,-0.75,-0.70,-0.53,0.21,0.25,0.67,2.40,1.58,3.79,5.41,4.80,5.62,3.85,4.47,0.69,1.17,-0.70,-0.08,-1.83,-0.01,-0.30,-1.70,1.16,1.10,-0.54,-0.48,-0.50,-0.16,-0.34,0.29,-1.05
"ex2062",-0.37,1.07,0.35,-0.38,-0.33,1.44,2.10,3.26,3.76,4.56,6.82,6.41,3.75,4.04,0.69,0.57,0.85,-0.15,0.54,-0.16,1.19,-0.85,2.84,0.78,0.78,-1.40,-0.74,1.02,0.93,0.56,-1.94,-0.03,0.03,1.67,-0.42
"ex2063",0.35,-1.04,-0.15,1.53,0.31,2.05,2.67,3.40,3.22,2.40,0.46,3.47,3.01,1.37,2.09,0.79,1.40,1.20,1.07,2.51,-0.58,0.48,0.24,1.34,-0.05,2.02,0.33,1.94,0.54,-2.58,-1.19,0.23,-0.45,0.61,-0.86
"ex2064",2.42,3.62,1.54,1.83,2.30,3.45,6.33,4.18,4.63,4.93,3.80,2.53,2.59,0.58,1.23,-1.17,-0.55,2.09,0.57,-0.26,-0.30,0.81,-1.85,1.80,0.28,-1.88,0.75,0.45,0.85,1.34,0.18,-0.45,1.62,-0.28,-0.90
"ex2065",-0.36,-0.20,-0.59,0.58,0.57,2.20,0.73,2.01,2.05,3.51,2.86,3.68,4.65,4.54,1.94,3.98,0.95,1.00,2.13,1.54,-0.82,1.28,0.92,1.43,-1.09,-0.19,-2.25,-1.40,-0.95,-1.02,0.68,-0.66,-1.09,0.57,0.52
"ex2066",-0.03,1.11,2.10,0.79,2.78,5.36,2.22,2.23,1.09,2.25,2.87,0.89,2.00,2.23,2.98,1.78,1.85,1.12,1.24,0.58,-1.05,-1.18,1.18,1.07,0.24,-0.97,-0.22,-0.22,-0.79,-1.48,-0.30,-0.02,1.21,-1.25,2.06
"ex2067",-0.30,0.89,1.16,2.63,3.10,5.00,6.04,5.29,4.28,2.69,0.15,2.65,-0.17,1.15,1.41,-0.98,1.81,1.78,-0.16,0.86,0.27,-0.24,-1.67,-3.57,-1.03,1.08,-0.84,-0.70,-0.84,-1.42,1.39,-1.00,-0.33,0.68,-0.15
"ex2068",-1.00,-0.17,-0.28,-0.10,1.18,2.05,0.25,3.16,3.45,4.68,5.25,4.35,4.64,3.58,2.03,2.76,0.30,0.96,0.23,-0.30,-1.93,0.09,1.50,0.54,-1.35,-0.27,0.13,0.33,-0.96,-1.72,-0.51,0.56,-0.53,0.45,-0.43
"ex2069",-0.66,-0.76,0.79,-1.96,-0.65,3.29,1.00,3.10,4.96,5.48,7.05,5.29,4.98,3.62,2.23,2.81,-1.07,-0.33,-0.27,-0.09,-0.53,1.90,-0.90,-0.65,0.36,-0.10,0.84,-1.11,-0.82,0.01,-1.36,-1.13,0.27,0.37,0.92
"ex2070",-2.21,0.17,1.03,3.84,2.04,3.35,4.56,5.76,4.19,2.30,0.14,1.86,-0.31,0.44,1.11,0.12,-0.55,0.96,-1.22,-0.27,0.06,0.18,-1.30,0.23,-0.85,-2.70,1.80,0.53,-1.23,0.80,1.34,2.84,0.22,2.23,-0.24
"ex2071",0.41,0.19,1.23,0.60,0.87,0.64,1.59,3.90,1.93,2.09,4.90,1.57,5.27,2.07,4.97,2.86,0.74,-2.20,1.77,-0.00,-0.86,-0.76,0.27,1.02,1.39,-0.05,0.57,-0.17,-0.27,1.85,-0.29,-0.11,-0.50,-0.75,0.62
"ex2072",0.33,-0.62,2.75,2.94,2.43,2.84,4.60,3.75,1.07,0.82,1.27,2.99,3.40,0.34,2.93,2.41,3.14,2.65,1.53,-0.44,0.48,-0.54,0.46,0.94,0.42,-1.60,0.41,-0.83,0.56,0.66,-0.41,-2.12,-0.04,0.38,0.78
"ex2073",-0.57,0.23,1.43,1.65,2.60,5.11,2.47,2.39,1.92,1.86,2.42,2.46,1.92,1.90,1.81,1.57,0.99,1.30,-0.40,0.56,-0.89,-2.09,-2.02,-0.48,-0.35,0.31,-1.82,-0.87,0.32,-0.98,-0.12,-0.61,0.49,0.55,-0.18
"ex2074",-2.03,-0.09,0.93,2.56,0.12,0.14,2.69,2.84,0.96,4.02,3.42,2.09,3.01,2.67,3.90,1.71,1.95,2.21,1.86,0.77,1.78,0.52,-0.68,-0.53,0.60,0.65,0.72,-0.65,0.68,-0.79,-0.80,-0.09,1.39,-0.43,-0.36
"ex2075",0.54,-0.35,-0.36,0.11,0.35,1.95,3.37,2.05,4.13,4.97,3.53,4.27,3.48,4.20,-0.34,1.64,-0.10,0.67,1.24,0.87,-2.23,0.94,-0.41,-3.44,-0.50,-0.21,1.25,-0.82,-0.52,-0.44,-0.44,1.47,0.23,-1.46,-0.24
"ex2076",0.08,2.86,1.84,0.85,0.75,1.39,1.30,1.44,1.19,2.21,1.92,3.00,2.35,5.50,3.28,3.96,1.76,2.03,1.70,0.50,-1.29,-1.53,0.10,1.12,-2.41,0.76,-0.26,1.43,2.00,0.60,-0.11,-0.16,1.13,-0.98,-0.82
"ex2077",-0.70,0.87,1.73,1.88,2.21,3.95,4.89,4.71,4.71,4.17,0.99,1.31,0.68,-0.06,1.91,1.00,0.45,0.29,-0.20,-0.46,-1.09,-1.33,0.18,-0.30,1.22,0.25,-0.35,-0.27,-0.70,0.35,-0.45,-0.34,-0.31,-0.17,-0.59
"ex2078",0.51,-0.42,1.64,2.81,0.99,3.21,2.37,5.09,1.70,0.05,2.60,2.63,2.01,1.02,2.36,2.91,1.45,0.90,-0.60,1.37,2.69,-0.39,-0.55,0.66,-0.27,0.68,0.11,0.20,2.25,-0.20,-0.74,0.88,-0.58,-1.31,-0.14
"ex2079",1.04,1.97,1.13,1.87,2.52,2.76,4.82,3.52,1.77,2.27,1.91,0.19,2.35,2.06,2.28,3.06,0.93,0.65,0.17,-0.10,0.32,0.32,0.42,-0.06,1.58,-0.07,-0.51,-0.91,0.12,0.10,1.30,-0.01,0.76,-0.20,0.38
"ex2080",-1.25,0.53,3.11,2.76,4.48,3.42,7.72,4.66,4.78,4.10,3.69,1.24,1.61,1.63,2.28,-0.09,0.19,0.51,-0.53,-1.41,0.25,0.14,-1.06,1.02,1.24,0.08,1.41,-0.58,-1.25,-0.22,0.72,0.32,1.29,-0.58,-1.15
"ex2081",2.93,0.42,-0.55,1.44,2.24,0.10,0.76,2.45,1.59,2.88,3.08,3.23,3.39,2.28,4.04,5.28,3.43,3.64,0.33,1.20,-2.22,1.79,-0.21,-0.82,1.16,-0.54,-0.62,1.05,-0.05,-0.99,0.10,0.17,0.76,0.14,2.03
"ex2082",-0.50,1.79,0.69,1.23,0.30,1.56,1.37,1.19,1.89,1.52,4.32,4.67,2.95,4.04,3.02,3.14,3.13,0.06,1.58,2.60,0.71,-1.27,0.04,-0.90,0.06,0.30,1.13,-1.05,-0.66,-0.88,-0.66,-0.16,-0.93,-0.13,-1.28
"ex2083",0.06,3.09,2.10,2.83,4.00,4.23,5.77,4.20,3.28,1.61,1.70,1.70,-0.33,2.15,0.32,-0.46,-0.02,-0.24,0.48,1.72,-0.88,0.68,-0.44,0.73,0.10,0.39,-0.38,1.65,-0.42,0.47,0.27,0.11,0.00,0.32,-0.05
"ex2084",0.44,0.57,0.12,1.28,0.40,1.85,4.05,4.26,4.03,4.50,3.36,5.30,3.25,1.77,1.56,1.58,-0.63,0.24,-0.50,-0.20,-1.17,-0.82,-0.10,-0.72,-0.91,0.05,-0.77,0.62,0.96,1.67,0.59,0.56,-1.18,-0.59,1.27
"ex2085",0.08,0.55,3.45,-0.43,0.55,0.53,2.15,3.63,4.89,2.32,4.17,3.84,3.75,3.30,1.17,1.70,-1.66,1.78,-0.00,0.97,-0.63,-1.18,-0.03,-2.31,-1.32,0.97,-1.41,0.36,-0.42,0.48,-0.65,-0.03,-1.43,-1.71,1.94
"ex2086",-0.71,-0.39,-0.60,0.09,-0.95,-0.73,-0.25,0.74,-0.22,3.48,2.07,3.91,2.62,3.42,6.07,4.87,3.16,2.62,3.65,1.15,2.08,-0.67,0.16,-0.45,0.05,-1.07,-0.98,-0.25,0.21,-1.97,1.34,-0.84,-0.88,0.78,0.27
"ex2087",-0.69,-0.69,0.87,3.02,-2.51,0.47,1.60,2.05,3.93,4.60,4.33,5.09,2.77,3.02,1.25,0.46,1.34,-1.59,-1.61,0.58,-0.13,-1.62,-0.17,0.92,1.30,-0.84,-0.57,-1.41,-0.06,0.16,-0.57,1.43,0.02,-0.67,0.75
"ex2088",0.37,-0.34,-0.58,0.44,0.46,-0.98,0.59,1.63,3.04,3.88,4.59,5.01,3.44,4.14,3.37,3.13,0.37,0.08,1.57,0.52,-0.90,-0.96,0.83,2.24,0.95,-1.02,-1.10,0.54,-0.04,-0.82,-1.10,-0.54,-0.99,0.42,0.61
"ex2089",1.30,-0.69,0.78,2.42,0.40,4.83,4.81,2.57,4.14,2.97,2.82,3.96,2.45,2.39,0.66,-0.14,0.41,0.94,-0.76,0.67,1.52,0.74,-1.63,-0.04,-0.27,0.17,1.95,0.85,-0.20,1.16,2.89,-0.77,0.15,-1.44,0.14
"ex2090",1.62,-1.53,-0.36,-1.26,0.47,0.18,0.59,2.95,0.25,4.11,4.50,3.83,3.42,3.75,5.85,4.08,1.04,3.64,2.27,0.29,2.02,0.87,-0.22,-0.38,1.25,-0.37,0.48,0.70,0.26,-1.03,-0.93,-0.17,-2.67,0.54,-1.36
"ex2091",0.31,0.47,0.55,1.22,1.19,1.02,2.25,1.20,1.78,1.42,2.57,1.82,3.98,4.40,5.57,4.06,4.34,2.85,3.69,1.03,0.69,-1.30,-0.19,-1.49,1.52,0.17,-0.82,-1.32,-0.34,0.59,-1.20,1.75,0.33,-1.30,-0.71
"ex2092",0.09,0.18,-2.71,0.24,-1.18,-0.31,1.37,2.95,5.02,4.09,7.42,4.48,4.15,3.58,3.31,3.32,0.54,1.37,1.88,0.65,1.31,-0.49,0.87,0.04,1.21,-1.50,-0.39,0.26,2.11,0.69,-1.05,-0.15,0.69,-1.04,0.44
"ex2093",-0.60,0.80,1.63,3.30,2.99,4.97,6.68,4.87,2.44,2.54,3.36,0.17,1.18,0.85,1.86,2.05,1.77,-2.05,2.20,-0.00,0.44,1.00,0.60,0.81,0.59,-1.63,1.84,-0.37,1.44,-1.16,0.29,-0.47,0.28,-1.67,1.06
"ex2094",2.37,-0.45,-0.58,3.84,3.95,6.45,4.91,5.91,3.27,1.44,1.92,1.25,-0.68,1.24,1.98,0.22,-0.16,1.21,0.29,1.78,0.43,0.01,-0.26,1.37,-0.71,-0.01,0.08,0.25,0.06,0.03,-0.34,1.50,-0.26,-1.62,0.05
"ex2095",-0.34,-0.58,0.26,-1.16,1.47,1.62,1.44,-0.50,1.60,2.34,2.38,3.91,4.43,4.20,5.48,4.12,1.25,0.91,1.26,0.89,-1.75,-0.96,-1.36,-0.25,0.35,-0.18,-1.66,-0.01,2.54,-0.26,0.33,-0.14,0.79,-0.97,-0.17
"ex2096",1.71,0.07,0.87,0.79,3.39,4.71,4.17,4.05,4.22,5.16,4.62,2.55,0.80,2.27,0.90,-0.36,-0.06,-1.96,0.15,1.11,2.78,-0.73,-0.02,0.54,0.00,-1.21,-0.31,0.79,1.01,1.30,-0.68,0.46,0.61,0.46,0.27
"ex2097",1.30,0.93,0.99,1.74,4.79,4.14,4.42,5.03,2.20,2.00,1.62,2.41,2.64,1.59,2.80,1.58,2.52,0.05,-0.19,1.16,0.53,1.99,-0.07,0.13,-1.14,-1.46,1.40,-0.57,0.35,0.08,-0.49,0.90,0.51,0.21,1.06
"ex2098",-1.98,0.84,-0.52,0.57,1.56,2.28,3.62,4.50,5.83,3.19,2.17,2.87,2.15,3.93,2.37,1.36,1.32,0.18,0.28,0.88,0.13,0.80,-0.92,-1.11,-0.70,-1.93,0.40,-0.61,-0.99,0.73,-1.04,1.90,-0.70,1.11,0.56
"ex2099",-0.59,1.07,0.98,1.56,2.78,4.50,1.99,4.18,3.79,5.59,2.42,0.01,-0.29,1.32,0.24,2.01,-0.20,0.83,-0.34,0.36,0.98,-0.61,0.13,-0.92,-1.33,0.45,0.25,0.67,1.63,0.14,0.54,0.35,-2.87,0.49,0.69
"ex2100",0.26,1.02,-1.20,-1.37,0.63,0.69,2.99,0.54,3.02,3.46,6.29,4.59,4.12,4.36,3.23,0.96,1.00,1.03,0.52,-0.76,0.72,-0.71,-0.89,1.36,1.32,-0.35,0.26,0.23,-0.94,0.44,-0.61,-2.22,3.33,-0.24,-0.57
"ex2101",-1.12,0.46,2.21,2.54,3.48,3.55,5.33,6.09,2.36,2.15,1.05,1.55,1.10,1.86,1.35,1.74,0.52,0.16,-0.07,1.19,1.06,0.11,0.22,1.12,0.65,0.33,0.09,0.09,1.56,1.45,0.33,-0.84,-0.30,0.03,-0.32
"ex2102",0.81,-0.07,1.25,2.34,3.86,4.33,6.22,5.73,3.42,4.22,2.52,1.54,-2.18,2.71,1.09,0.05,0.14,-0.82,1.34,0.11,0.63,0.95,0.75,0.25,0.51,0.33,1.01,-1.31,1.44,-0.54,0.06,-0.57,0.01,-0.22,-0.45
"ex2103",-0.68,-0.74,1.33,-0.87,-0.47,1.24,1.09,0.96,0.97,1.24,2.79,3.09,5.30,3.27,4.74,3.43,5.09,1.91,1.85,1.39,-0.62,-1.12,-0.55,-0.72,-0.03,-0.22,-0.04,-0.54,-0.23,1.21,0.13,-0.62,-0.28,-1.26,-0.12
"ex2104",-0.63,0.98,1.73,-0.26,0.79,3.16,0.64,3.18,3.93,4.12,2.38,3.33,2.58,1.68,0.93,0.47,-0.12,-1.15,-1.26,0.06,-1.27,-0.38,0.21,1.76,-0.16,-1.26,-0.74,-0.47,0.47,0.83,-0.26,1.38,0.19,0.55,-0.60
"ex2105",-0.24,-0.98,0.89,1.85,0.17,2.10,5.17,6.04,4.53,3.23,5.23,4.91,0.97,1.42,2.04,0.19,0.58,-0.09,-0.20,-0.24,0.14,0.31,0.58,-0.51,0.84,1.58,-0.34,-1.79,0.89,1.04,-0.10,-0.15,-0.43,1.26,-1.39
"ex2106",-1.12,-0.74,-1.77,-0.48,-0.53,1.02,1.55,0.66,1.34,2.37,4.50,5.20,4.80,2.74,4.63,1.49,1.98,1.92,2.20,0.84,1.36,0.04,0.10,-0.35,-0.07,-0.84,0.62,-0.36,0.88,-0.86,1.01,-1.43,-0.72,-0.91,1.09
"ex2107",-0.62,1.53,0.60,-1.67,0.79,0.46,1.80,4.44,0.55,0.33,-0.07,2.24,3.09,4.15,5.75,3.04,3.39,0.42,1.33,0.92,-1.59,-0.88,-1.14,1.13,-1.30,1.92,-0.96,0.08,-1.05,0.79,0.63,0.09,-1.03,-1.38,0.28
"ex2108",0.95,0.80,-1.17,-1.90,1.45,0.81,2.64,2.52,2.67,3.41,5.55,5.98,2.72,2.95,2.69,1.91,0.33,-0.46,-1.15,-1.47,0.01,-0.45,0.54,-1.08,0.04,1.02,-0.48,-0.68,0.41,0.64,-1.06,-0.44,0.17,-0.92,-2.60
"ex2109",-0.66,-1.39,1.18,-0.27,-0.72,-1.05,0.29,-0.13,-0.04,-0.05,0.37,3.68,2.27,6.33,5.73,6.21,4.20,1.12,2.12,0.66,0.92,-2.26,1.08,1.24,0.30,-0.12,0.85,0.44,0.92,0.18,-1.84,1.81,-0.53,-2.52,-0.04
"ex2110",2.07,0.85,1.35,0.53,1.44,2.07,0.89,0.19,0.54,0.60,2.51,2.32,3.53,4.36,4.53,4.87,3.76,2.47,3.85,1.24,-0.32,-0.11,-0.94,1.74,0.12,1.08,0.85,-0.46,-0.22,-0.56,0.84,-2.00,0.24,1.13,0.43
"ex2111",-0.21,1.08,0.23,2.52,1.69,2.03,3.10,2.05,3.35,3.03,1.67,2.07,3.19,2.27,3.55,4.07,2.87,1.02,1.33,-0.48,0.02,0.27,-0.77,1.04,-0.54,1.30,1.96,1.00,0.08,-0.31,-1.01,-1.25,0.24,0.03,-1.00
"ex2112",-0.58,1.27,-1.16,-0.24,-1.49,1.46,0.38,2.11,3.70,5.45,4.23,6.73,4.84,2.80,2.66,1.27,0.62,-1.99,0.27,0.47,-1.57,0.32,1.47,-0.80,0.43,-0.47,0.71,0.29,2.60,0.45,-0.30,0.41,-0.97,0.34,0.65
"ex2113",-0.49,-1.15,0.52,-0.70,-0.84,0.36,-0.04,0.14,-0.24,0.25,2.64,2.07,4.30,4.59,3.62,2.90,4.45,2.63,2.06,1.07,-0.66,-0.71,-0.40,-1.10,0.31,0.87,-1.41,-0.52,-1.12,-1.54,1.45,0.46,-1.14,-0.42,1.53
"ex2114",-0.35,1.24,1.98,-0.57,1.43,1.34,3.27,2.67,2.97,4.28,5.78,3.83,2.91,0.73,-0.32,2.69,-0.58,1.27,-0.45,1.82,-2.90,1.92,0.60,-0.31,2.25,1.59,-0.32,-0.81,1.41,-1.27,-0.18,-0.62,0.93,-0.23,1.46
"ex2115",1.14,2.52,2.60,3.51,3.09,4.66,7.00,4.99,3.65,1.68,-0.04,-1.63,0.32,1.72,-1.57,-0.47,0.36,-1.02,-0.39,-0.59,0.09,-0.63,-1.44,-0.22,0.11,1.89,-1.59,0.15,0.05,0.02,-1.52,-1.21,-1.23,-0.04,1.15
"ex2116",0.49,-0.26,-1.18,2.40,0.23,2.24,3.78,4.03,3.83,5.79,5.20,4.74,1.29,2.53,2.60,1.12,-1.07,-0.64,0.95,-0.40,-0.15,-0.17,1.89,-0.24,0.00,-0.08,-0.49,0.33,-0.92,-0.01,-0.49,0.79,0.45,-1.29,0.25
"ex2117",-0.54,1.58,0.31,0.45,0.85,-1.21,2.37,2.84,3.64,4.42,3.62,3.73,2.70,3.64,1.34,2.02,0.72,2.42,0.42,1.50,-1.55,0.09,1.01,-2.47,-0.47,1.25,-0.59,0.67,0.01,-1.91,-1.56,1.59,0.71,0.25,0.35
"ex2118",-0.25,0.47,-0.74,-2.34,-0.09,-0.11,0.13,1.07,2.20,4.10,5.90,2.90,0.99,3.39,2.53,3.45,0.47,1.50,2.72,-1.77,-0.61,-1.24,0.21,-1.39,1.66,-2.37,0.28,-0.81,-1.22,1.27,-1.22,-0.20,-0.63,1.49,0.46
"ex2119",1.30,-2.04,0.60,0.20,-0.09,0.21,0.09,2.46,3.16,3.57,6.78,5.61,5.18,4.28,4.41,3.59,1.32,-1.39,1.28,0.81,0.34,0.70,0.10,-0.63,-0.24,-0.99,-0.22,-3.73,0.44,0.61,-1.65,-0.98,-0.90,-0.45,-0.31
"ex2120",-0.76,-0.39,1.06,-0.83,-1.63,0.35,-2.66,0.18,2.14,0.10,2.41,5.11,2.91,3.75,5.28,5.13,3.61,3.48,2.47,2.58,1.45,0.39,1.22,-0.21,0.59,-0.11,0.13,-0.08,-0.57,0.92,-0.02,-1.64,-0.08,0.96,0.06
"ex2121",-1.95,0.66,-0.79,-1.12,-0.04,1.87,2.38,1.79,3.88,5.47,4.94,3.64,4.43,2.79,2.44,0.85,0.58,-1.85,-0.46,1.85,-1.79,1.11,-0.29,1.60,-0.47,0.84,-0.47,0.89,-0.58,1.21,0.51,0.27,-0.73,0.58,0.31
"ex2122",-0.49,1.22,0.74,0.02,-0.07,0.74,0.27,-0.67,2.20,1.04,1.04,1.29,2.74,5.51,5.40,2.68,3.32,4.07,2.91,0.11,-0.67,0.32,-0.05,-2.51,0.51,0.94,0.06,-0.03,-0.35,0.38,0.18,0.17,-0.39,0.85,0.82
"ex2123",1.14,1.09,1.78,1.72,2.45,3.84,3.19,2.75,3.16,2.32,0.69,0.48,1.42,3.12,1.82,2.57,0.01,0.98,1.68,-0.50,1.28,-0.24,0.88,0.20,0.06,0.45,1.26,-0.14,-1.13,-0.46,-1.65,-0.44,-0.25,0.20,-1.14
"ex2124",-1.06,0.51,-0.34,0.66,-0.56,-0.16,0.60,1.16,0.57,2.05,3.07,3.50,5.18,4.77,6.37,5.61,3.70,2.87,0.46,0.65,-0.30,1.29,-1.34,-0.21,-1.11,0.43,1.36,-0.58,2.21,2.06,0.89,-0.60,-1.81,-0.53,-0.46
"ex2125",-0.23,1.53,0.61,1.95,3.04,3.81,4.62,3.81,1.85,3.50,2.33,0.92,0.38,1.33,-1.27,1.35,0.20,-0.39,1.40,0.52,0.19,1.30,-0.43,1.08,-0.49,1.00,1.97,-0.64,-0.21,0.75,-0.15,1.93,0.45,1.06,0.76
"ex2126",-0.26,-0.95,-0.62,0.26,0.84,-1.24,-0.51,1.41,1.45,4.29,1.06,4.83,2.57,3.04,3.84,3.16,2.56,2.08,1.70,1.80,0.27,-2.37,-0.04,0.13,0.15,-0.27,1.84,-0.92,0.37,-1.74,1.18,-0.66,0.26,0.25,3.16
"ex2127",-0.72,1.42,2.74,0.55,3.70,5.14,4.59,4.56,4.74,3.69,2.24,3.00,2.92,0.48,-0.29,0.26,0.58,-0.22,-0.25,-0.03,-2.12,-0.70,-0.19,-3.31,0.40,1.54,-0.87,-1.09,0.36,-0.58,-0.41,-1.03,-0.17,-3.21,-0.17
"ex2128",0.87,-0.72,-0.32,-0.57,2.63,0.75,3.44,2.87,3.76,5.17,4.07,3.97,3.82,3.86,3.22,1.53,-1.46,0.63,0.12,-0.15,-0.62,0.07,-0.47,-1.80,0.33,0.53,0.45,-0.89,0.12,-1.95,0.06,0.64,1.62,-0.89,0.35
"ex2129",-0.11,0.98,1.09,1.84,1.51,5.21,7.64,5.22,5.92,2.78,1.72,1.25,-0.83,0.79,-0.49,0.30,1.71,0.55,-0.97,0.08,0.40,-1.73,-0.27,-1.14,-1.29,0.12,1.06,0.92,-0.13,0.12,-0.69,0.91,-0.50,-0.34,0.97
"ex2130",-1.52,0.15,-0.09,0.14,0.42,0.76,2.65,2.72,2.98,4.76,5.94,5.28,3.51,1.79,0.06,0.51,0.74,-1.12,-2.27,-0.33,0.25,-0.11,-1.99,0.22,2.47,1.38,0.35,-0.31,0.03,-0.02,-0.13,-0.01,0.39,-1.17,1.06
"ex2131",0.12,0.68,1.71,2.07,1.99,2.06,4.36,2.29,0.92,2.22,2.05,1.69,-0.53,1.33,4.10,2.78,0.43,2.16,-0.49,-0.24,-0.62,-1.96,-0.65,0.36,0.34,0.23,0.96,-0.52,0.09,-0.45,0.12,0.36,-1.59,0.17,-0.14
"ex2132",0.43,2.28,0.65,5.29,4.47,5.55,5.86,2.39,5.20,2.73,3.66,-0.30,0.10,0.99,0.64,1.56,0.45,-1.49,0.67,2.33,0.35,0.22,0.44,-0.30,-0.86,-0.30,1.66,-0.63,0.95,0.60,-0.84,-0.85,1.14,-0.24,1.64
"ex2133",-0.66,1.79,0.36,2.70,3.36,2.86,5.63,3.27,3.56,3.41,2.74,2.64,2.40,2.13,1.65,0.40,-1.45,-0.28,-0.18,-0.26,1.08,-0.26,0.30,0.24,0.16,0.45,-0.22,-0.85,0.01,0.79,-0.23,-0.29,-0.14,1.02,-0.36
"ex2134",0.87,2.37,-0.38,0.43,0.30,1.76,2.18,2.62,3.63,5.48,5.78,4.42,2.19,3.50,1.67,-0.69,-0.70,-0.92,-0.46,2.01,-1.45,1.19,1.07,-0.13,0.07,0.95,-1.44,-0.99,-1.12,-1.14,-1.90,0.80,-0.82,-0.30,0.74
"ex2135",-0.13,-0.32,2.44,1.92,2.27,1.42,4.52,2.34,5.22,2.08,4.94,2.97,2.01,1.12,-0.08,0.09,-1.34,-1.57,-0.08,-0.86,0.08,-0.75,0.10,-1.42,-0.28,-0.02,-0.87,-1.18,0.67,1.22,0.35,-0.58,-1.14,-0.07,-1.01
"ex2136",-0.66,-1.10,-0.62,0.54,-1.18,1.66,-1.53,-0.17,-0.34,0.96,3.91,2.36,4.47,4.98,2.55,5.39,4.79,1.35,2.66,1.74,-1.08,1.06,0.20,-1.92,1.38,0.68,0.55,0.18,-0.58,0.18,0.74,1.13,0.18,-1.40,0.23
"ex2137",-3.15,0.48,-0.34,1.06,-0.59,-0.11,1.47,2.72,3.28,4.26,7.17,3.51,4.46,3.09,3.31,0.50,2.06,-0.83,0.52,1.28,-0.36,0.86,-0.23,0.20,0.48,-0.89,1.60,-1.57,-0.48,0.76,0.16,-0.27,0.00,-1.31,0.76
"ex2138",-0.78,-1.33,0.42,0.26,0.47,0.67,3.21,3.36,4.09,3.50,7.18,4.53,3.19,3.25,3.98,2.09,-1.27,0.32,1.15,1.85,-0.06,1.49,-1.31,1.64,0.81,0.78,0.42,0.15,-0.69,0.84,0.59,-1.42,-1.44,0.30,2.53
"ex2139",0.45,-0.10,0.21,-0.39,0.37,-0.28,2.69,1.27,1.50,2.59,1.44,3.01,3.33,3.79,4.01,5.15,2.78,2.33,2.46,2.03,-0.61,-1.79,0.97,-0.34,1.70,0.59,-0.01,0.67,0.84,-1.16,1.38,-2.27,0.27,-1.11,-0.24
"ex2140",-0.78,0.43,2.75,3.01,3.92,4.99,6.33,4.11,3.64,4.08,1.89,0.29,1.78,-0.60,0.92,0.67,-0.01,1.05,-1.60,0.31,-2.12,0.97,0.92,-2.20,1.83,-1.51,0.67,-1.14,1.68,0.75,0.03,-0.13,1.27,0.14,0.63
"ex2141",2.05,-1.15,-2.40,-1.18,-1.06,-0.96,-1.32,-0.52,-1.20,1.70,3.02,3.80,5.26,4.01,4.90,4.87,4.69,3.95,1.35,1.03,1.38,0.88,0.00,1.09,0.09,-0.60,0.25,-1.68,-0.84,0.09,0.51,-2.11,2.00,-1.08,-0.41
"ex2142",1.97,0.18,0.58,-0.14,1.05,1.59,1.77,2.67,2.53,2.86,-0.03,1.89,2.50,3.09,1.68,2.25,2.28,0.42,1.49,0.67,1.04,1.70,-0.89,-0.35,0.02,0.36,0.34,0.21,-0.85,-1.47,1.95,0.83,-0.99,-0.57,0.32
"ex2143",-1.54,-2.09,-0.48,-0.64,-0.35,3.62,-1.27,-1.06,2.18,1.55,2.70,1.42,3.47,5.71,3.65,5.40,1.98,0.40,1.42,3.27,0.12,-0.34,-1.60,-2.04,-0.13,0.20,0.86,-0.50,0.86,1.29,-1.71,-0.66,0.10,-0.90,1.13
"ex2144",-0.58,-0.21,2.89,1.11,0.30,2.53,4.11,4.24,5.19,3.82,4.31,4.44,2.50,1.75,0.96,1.39,-0.72,-0.82,-0.01,-1.44,-1.25,0.63,0.05,1.04,0.29,0.85,0.60,1.44,-0.04,-0.67,-1.84,-1.34,0.86,-0.27,-0.25
"ex2145",0.17,0.74,0.33,1.16,3.83,4.03,4.15,4.69,4.03,4.96,4.55,3.49,3.67,2.41,2.07,0.16,-0.52,-1.50,-0.60,2.49,1.24,0.49,2.03,0.52,-0.56,-0.41,-0.37,0.73,-1.47,0.81,-1.13,1.36,-0.07,-0.76,-1.02
"ex2146",1.08,1.32,1.34,3.96,2.94,2.93,4.58,5.03,3.18,4.78,2.38,2.08,0.75,1.40,-0.07,-0.65,-1.22,-0.47,0.77,1.66,0.93,-1.87,1.44,-0.17,-0.02,-0.03,-1.59,-0.82,1.46,-0.74,0.17,0.96,-0.10,-1.65,0.26
"ex2147",0.09,1.55,0.93,-0.13,1.19,0.83,5.16,3.66,3.32,3.95,6.95,3.83,4.51,2.52,-0.34,-0.34,-1.10,-0.22,-0.69,-1.81,-2.00,1.04,-0.10,-1.89,-1.36,0.20,-1.86,1.27,-0.05,0.89,-2.19,1.26,-1.42,-0.06,-1.40
"ex2148",-0.62,1.60,1.44,1.36,2.23,3.90,6.38,5.71,3.97,4.14,2.75,2.66,0.84,2.18,0.60,0.90,-1.26,0.94,-1.76,2.06,0.97,-0.01,-1.05,0.05,-0.75,0.40,-1.10,1.43,-1.23,0.40,-0.54,-0.19,-0.43,-0.32,-0.13
"ex2149",-0.70,0.77,-0.87,0.16,1.19,1.11,0.69,1.30,1.99,1.12,3.45,5.49,5.33,3.72,4.14,3.34,3.75,0.75,2.89,1.36,-0.71,-0.19,-0.61,0.87,-0.84,-2.10,-1.66,0.85,-0.16,2.61,0.09,-0.84,0.45,0.86,-0.98
"ex2150",0.65,-0.19,2.45,1.85,3.56,5.57,7.33,3.78,5.12,3.75,0.53,2.05,-1.05,-1.37,0.02,-1.17,-0.76,0.16,2.18,-0.42,0.32,1.65,-0.12,-0.33,0.40,0.36,1.02,-0.32,1.83,-0.58,0.35,0.13,-1.53,0.88,0.55
"ex2151",-1.22,-0.18,-0.76,-1.87,1.93,1.57,1.70,2.65,3.59,4.77,4.72,2.80,1.17,2.37,2.18,2.47,0.41,1.12,-0.82,0.17,1.58,0.97,0.37,1.03,-0.93,-0.11,1.43,0.19,-1.15,-0.97,-0.95,-0.56,-0.12,-1.40,-0.25
"ex2152",-1.30,-0.08,0.83,2.51,1.54,4.67,7.10,4.37,3.78,3.39,2.13,1.64,3.00,1.98,1.88,1.94,0.67,-0.26,0.14,1.80,-0.75,0.73,0.02,-0.09,-0.66,0.11,-0.50,-1.64,0.40,-0.39,0.26,0.12,0.30,0.01,0.21
"ex2153",0.16,-0.13,0.10,-0.76,0.09,0.81,1.45,1.77,2.07,3.37,3.37,0.39,4.23,2.87,5.05,5.94,2.41,0.76,1.73,0.61,0.01,0.62,-1.05,-0.31,0.33,-1.05,-0.39,0.50,-0.26,-0.47,1.44,-0.08,-0.33,0.17,-0.98
"ex2154",0.22,1.80,2.17,1.91,2.26,3.42,4.81,4.35,4.36,5.46,4.05,2.30,0.17,1.71,1.90,0.12,-0.11,0.08,1.38,1.01,-1.44,-0.75,-0.68,1.11,-2.90,0.28,0.72,3.30,-0.16,1.64,0.40,0.77,-1.03,0.45,0.18
"ex2155",1.31,1.35,1.95,0.67,0.28,1.51,1.92,1.68,-1.18,2.61,-0.84,3.32,1.42,2.74,1.09,1.79,3.65,2.49,-0.75,-0.73,-1.03,-0.30,0.14,-0.25,-1.17,-0.97,-1.43,-0.34,0.36,2.36,-0.85,-0.66,-2.95,-0.56,-1.65
"ex2156",0.78,1.25,1.58,2.23,2.50,2.57,3.23,5.01,2.65,5.22,5.78,3.42,0.51,1.87,0.95,-1.19,0.83,-1.56,-1.38,0.21,1.27,1.40,0.70,0.27,-0.66,0.24,-0.17,-0.82,0.11,-0.22,0.25,-2.01,1.23,2.61,-0.38
"ex2157",-0.86,1.13,3.76,0.79,1.88,3.61,5.19,5.66,2.56,4.44,3.81,0.53,0.86,1.09,1.69,-0.01,0.21,0.61,0.17,0.11,0.95,-1.87,0.60,-1.44,-1.96,0.81,0.76,1.65,0.38,0.37,0.41,0.74,-0.16,-0.23,0.79
"ex2158",-0.13,-0.10,-0.60,0.97,0.08,0.39,2.05,1.30,3.99,4.67,5.58,4.88,3.15,2.90,0.68,1.85,-0.05,-1.07,-1.58,0.21,0.22,-1.32,-1.09,-1.52,0.32,-1.05,-0.22,1.78,-1.55,0.45,-0.15,0.92,-2.80,1.86,0.40
"ex2159",-1.15,2.03,2.80,1.57,1.96,2.18,1.50,2.22,-0.10,2.26,2.33,2.42,2.89,1.15,3.70,4.77,1.93,2.61,0.86,-0.62,-1.36,-0.58,-0.06,-1.38,-0.22,1.16,1.48,-0.59,0.04,-1.83,-1.16,-1.35,-1.05,0.27,-1.42
"ex2160",-0.19,-1.32,-0.57,1.69,0.76,1.73,0.27,2.03,0.64,3.14,3.11,3.40,5.16,4.49,4.28,4.61,3.47,1.29,1.03,0.44,-1.54,-1.67,-0.27,-0.44,1.11,-0.96,0.08,-0.67,0.81,0.39,-0.61,1.20,-0.06,-0.55,-1.05
"ex2161",1.22,0.67,-1.52,1.29,0.89,0.57,0.20,0.52,0.69,2.57,2.29,2.57,6.44,3.71,6.88,3.62,2.34,1.69,1.93,0.60,1.61,-0.07,-0.10,-2.05,1.45,-0.73,0.50,-1.52,-0.04,0.21,-0.17,0.35,1.04,-0.13,0.02
"ex2162",-0.04,0.96,1.33,3.53,2.93,5.82,3.52,3.75,4.12,1.73,4.33,3.75,2.07,1.43,-1.29,0.31,-1.79,0.01,0.64,0.32,-0.98,-0.01,-0.54,0.22,0.59,-0.80,-0.71,-1.21,-1.05,0.30,-1.03,-0.14,2.24,-0.70,-0.58
"ex2163",-1.49,0.54,0.12,-0.89,-0.16,2.33,4.57,4.43,4.40,4.49,5.21,4.56,3.95,2.62,0.37,2.38,1.15,-0.24,-0.30,-2.78,0.77,-1.75,-1.75,0.69,0.37,2.18,0.74,-0.61,0.98,0.71,-0.46,0.12,-0.23,0.72,-0.29
"ex2164",-0.75,-1.83,-0.19,0.60,-1.31,1.08,1.85,5.18,3.41,3.51,5.18,3.07,1.69,3.12,1.21,0.86,0.53,0.49,-1.62,-0.68,0.05,1.72,-0.65,-0.03,0.95,0.96,-0.07,-1.95,-2.52,0.21,1.76,0.35,0.80,-1.65,-0.82
"ex2165",-0.01,-1.05,-1.24,-0.81,0.79,0.08,0.93,1.45,4.11,4.59,4.16,4.40,3.02,3.16,3.77,3.49,1.35,-0.41,1.50,0.64,-0.90,1.37,-1.00,0.89,1.92,1.90,-0.53,-0.04,0.76,-0.11,-0.53,-1.57,0.46,-2.03,0.39
"ex2166",1.55,-0.12,1.75,2.69,3.47,2.98,3.63,3.56,5.57,2.27,1.50,3.07,-0.75,1.27,2.52,-0.52,-2.62,1.97,-1.11,-2.00,-0.22,-1.23,-0.75,0.06,0.18,2.10,0.08,-0.60,0.26,0.41,-0.53,1.19,0.18,-0.63,0.27
"ex2167",-1.12,3.25,2.99,3.26,1.49,4.61,5.33,4.10,4.53,5.40,3.27,2.87,0.11,-1.14,0.50,0.23,0.07,2.34,0.23,-0.70,1.06,1.16,-0.77,0.67,0.00,-1.29,0.58,-0.56,-0.56,-0.37,0.03,1.10,-0.26,0.54,0.59
"ex2168",-0.05,0.98,2.80,3.12,2.87,5.16,5.22,2.50,3.06,3.16,-0.35,0.93,2.46,0.33,2.21,-0.32,2.43,-0.47,0.87,-0.14,0.44,-0.92,0.09,-0.25,1.95,-0.32,1.83,-0.44,-0.28,-0.14,-0.41,-0.67,-0.40,-1.07,0.27
"ex2169",1.65,0.23,-0.44,0.42,-0.80,1.12,3.18,3.26,4.50,5.11,6.41,5.20,5.46,2.66,2.30,1.92,0.49,0.72,-0.34,-0.52,-0.09,1.59,1.78,0.04,1.25,0.61,0.37,0.34,-2.30,-0.50,0.35,0.01,-1.47,0.48,-0.29
"ex2170",-1.03,-0.40,-0.13,-0.60,-0.63,1.97,2.45,2.30,5.74,4.40,7.47,4.48,4.20,3.16,1.95,0.13,-0.46,-1.21,-0.64,0.79,0.07,-0.48,0.82,-0.18,0.15,1.08,-0.17,-0.74,1.46,-0.26,0.60,1.02,-0.49,-2.13,0.33
"ex2171",0.85,-0.47,-0.99,0.39,0.67,-1.08,1.57,2.22,2.76,4.80,3.33,5.11,4.73,2.64,3.81,1.11,1.63,1.22,-1.74,-0.61,0.07,0.64,-0.43,1.08,0.69,-1.68,0.67,-0.75,-1.11,0.58,0.67,0.62,0.93,0.24,0.44
"ex2172",0.18,-2.53,1.78,0.85,0.05,1.39,1.45,3.07,3.25,4.04,3.48,5.76,4.05,3.45,5.60,1.90,1.09,0.43,-0.10,-0.26,0.02,1.72,0.70,1.12,-0.74,0.86,0.19,1.53,0.65,-0.84,-0.17,-0.96,0.66,0.43,-0.59
"ex2173",-0.55,3.08,2.00,2.77,3.23,4.10,4.70,3.66,3.60,1.06,1.61,-0.16,-0.65,1.38,3.04,2.50,2.16,0.44,0.09,-1.06,-0.53,1.09,-0.34,0.43,0.03,-0.15,0.32,1.25,-0.66,1.30,-0.89,1.29,-0.55,-0.81,0.58
"ex2174",0.13,0.60,0.19,3.27,2.34,5.34,2.73,3.82,4.87,1.56,2.21,1.16,1.65,2.13,1.89,2.95,-0.88,1.20,2.50,1.51,-0.53,-0.77,-0.84,-0.44,-1.04,-0.09,1.34,0.63,-0.79,-1.04,0.34,0.01,1.08,0.53,-0.85
"ex2175",0.41,-0.97,0.18,-1.61,-0.77,1.37,0.68,1.34,2.57,5.07,6.34,7.00,6.63,2.89,2.27,-0.19,-1.05,1.29,0.23,-0.83,0.30,-0.58,-1.69,-0.36,-0.58,1.16,0.45,1.80,-0.68,-0.06,-0.15,-0.46,-0.03,0.90,0.42
"ex2176",2.05,1.13,0.27,1.92,1.75,1.95,2.17,0.47,0.45,1.45,1.70,2.82,2.04,3.71,6.35,2.94,4.35,2.21,2.28,0.99,0.30,-0.65,0.82,-1.07,0.28,-0.38,0.51,0.22,-0.12,0.05,0.25,-0.54,0.50,1.52,2.04
"ex2177",0.38,0.05,-0.68,-1.16,0.10,0.03,1.00,-1.12,1.29,1.43,2.61,1.75,4.63,4.73,4.79,5.55,3.93,2.88,2.34,-0.02,0.85,0.49,-0.85,-0.62,0.67,-0.62,1.92,0.34,-0.96,0.59,-2.03,0.40,0.48,0.23,0.01
"ex2178",0.45,-0.82,0.63,-0.44,2.49,2.79,3.86,3.88,3.76,4.04,3.59,3.28,0.71,1.94,1.52,0.74,-0.57,0.64,2.69,-0.48,-1.26,0.39,2.19,0.59,1.37,0.32,0.82,0.05,-1.02,1.63,0.13,0.01,1.80,0.67,-2.90
"ex2179",-0.29,0.40,1.78,3.08,5.71,4.04,4.19,3.94,1.87,1.24,0.64,-0.41,1.99,-1.40,-1.71,1.47,0.31,-0.27,-1.13,0.25,0.06,1.21,-0.36,2.25,-1.73,1.05,-1.03,-0.40,-1.33,1.85,-0.43,-0.62,-0.58,1.93,1.96
"ex2180",-0.58,0.20,0.31,1.32,0.02,2.21,1.28,3.37,3.05,3.33,5.83,5.13,3.80,3.28,2.49,1.70,-0.88,1.25,1.45,0.82,-0.93,0.74,1.10,1.72,-0.72,-0.10,0.17,2.46,0.00,0.85,0.13,-2.36,1.96,-0.05,-0.45
"ex2181",-0.69,0.10,0.21,-0.78,0.18,0.74,1.73,2.53,2.43,2.19,3.85,4.48,5.79,5.10,4.91,4.90,3.93,0.81,-0.55,3.12,0.46,-0.99,0.36,0.79,0.28,0.20,-0.61,-0.95,-2.21,1.79,0.15,0.34,0.49,-1.73,-0.16
"ex2182",-1.11,-1.44,0.30,-0.30,1.43,0.23,1.92,3.58,3.97,4.45,5.43,3.84,3.33,3.28,2.47,2.66,0.47,0.64,1.59,1.96,1.42,-1.02,-1.74,0.18,0.03,-0.23,0.66,-0.59,-2.00,0.14,-0.34,1.73,-0.10,0.81,0.18
"ex2183",0.65,0.40,1.49,0.44,-0.89,-0.49,0.81,1.13,1.93,2.05,4.43,3.77,3.71,5.29,4.29,3.88,4.08,3.85,0.57,1.03,-0.67,0.40,0.31,1.61,-1.30,-0.09,0.48,-0.93,0.57,-0.67,0.05,0.45,-0.86,1.21,0.60
"ex2184",-1.08,-0.46,-0.41,-0.72,0.28,-1.07,-0.96,0.39,2.11,3.22,5.10,4.87,4.22,2.87,4.98,4.15,1.40,3.64,1.90,2.29,1.75,1.22,0.06,0.02,-0.50,0.82,-0.56,0.95,-0.07,-0.99,-0.40,-1.00,-0.04,-1.65,0.76
"ex2185",-0.27,1.15,1.15,2.52,2.53,2.18,3.80,3.72,2.47,3.63,2.89,2.58,-0.11,-0.49,0.58,0.28,1.51,0.57,-0.50,0.71,-0.79,0.64,-0.80,-0.98,-0.82,2.02,1.55,0.86,0.36,0.12,0.16,-0.94,1.00,2.33,-1.58
"ex2186",0.38,0.57,1.31,2.38,2.83,5.37,4.58,3.56,4.51,3.74,1.65,3.21,-0.35,1.58,0.92,0.72,0.55,0.02,2.18,0.76,-0.46,2.19,0.25,-0.50,0.51,-1.41,-0.59,0.44,0.52,-0.16,-0.53,-0.14,-0.56,0.51,-0.57
"ex2187",0.24,0.05,-1.40,1.32,0.66,2.16,0.67,2.57,4.43,5.58,5.10,5.54,3.66,2.44,1.40,1.53,-1.09,0.93,-0.24,0.32,-0.28,-0.25,0.08,1.35,0.24,-0.22,0.31,-0.70,0.74,-1.25,-0.17,-1.20,-0.50,0.24,1.16
"ex2188",-0.46,-0.43,2.27,3.19,4.25,5.03,4.19,4.32,4.40,3.55,1.24,3.11,0.03,2.87,1.34,0.97,1.55,-0.99,1.84,0.94,-0.43,0.65,0.48,-0.08,-1.14,-0.71,0.78,0.66,0.08,-0.18,-0.33,-1.57,-0.86,0.30,0.31
"ex2189",0.01,0.45,1.42,0.55,0.88,0.32,1.15,0.96,-1.31,1.92,3.47,3.11,3.31,4.41,3.65,4.15,3.83,1.30,0.06,0.99,-0.49,0.25,0.77,0.89,0.63,-0.61,-0.68,0.85,-0.01,-1.24,-1.06,-1.38,0.75,-1.36,0.68
"ex2190",-2.01,-0.30,1.61,2.19,1.24,-1.67,0.84,0.89,0.14,1.82,1.62,3.11,3.11,3.13,4.66,6.99,5.46,3.66,1.84,0.70,-0.07,-1.12,-0.74,0.96,-0.49,-1.11,0.64,-0.45,0.38,0.80,1.38,-2.16,-0.08,0.09,-0.35
"ex2191",1.31,-0.96,0.34,0.04,0.08,1.71,1.43,4.55,3.85,5.60,6.19,4.69,3.43,1.71,4.63,0.71,-0.31,-0.42,1.93,0.75,-1.15,0.42,-1.17,-1.97,0.80,0.31,-1.06,-0.55,-0.01,-1.92,1.06,0.33,0.83,-0.36,-0.72
"ex2192",0.46,-0.39,-0.81,1.00,-1.48,0.08,1.50,3.20,3.59,5.40,7.21,5.53,5.34,3.84,2.80,0.65,3.24,0.55,0.01,-0.17,-0.65,-0.96,0.22,1.78,-1.35,1.25,0.94,-0.37,-0.13,-1.01,-0.33,-0.02,-0.89,-0.34,-2.28
"ex2193",-1.38,0.26,0.51,1.00,0.15,2.25,4.16,3.82,4.58,4.08,5.87,1.17,3.11,2.77,-1.49,-1.02,-0.21,-1.32,-0.22,0.91,-0.13,0.35,0.13,0.27,-0.03,-0.02,-0.50,-0.27,0.29,-2.51,0.67,0.37,-0.84,-0.85,0.68
"ex2194",-0.99,-0.06,0.28,0.81,1.90,0.97,1.70,4.47,-0.23,4.45,1.63,0.69,1.07,3.82,3.77,2.94,2.34,0.12,1.49,2.15,-1.15,-0.55,1.09,0.03,-0.51,-0.57,-0.44,1.03,1.51,0.05,-1.11,-0.89,-1.15,0.28,1.13
"ex2195",0.57,0.31,1.00,0.60,4.05,4.28,4.28,3.90,1.30,1.36,4.43,2.30,0.11,2.95,2.41,2.18,1.30,2.00,-0.83,-0.44,-0.70,0.50,0.75,1.28,-2.36,-0.73,-0.55,-1.79,0.61,-0.73,1.32,0.61,1.50,0.40,-0.12
"ex2196",-0.99,0.61,1.15,0.62,1.30,1.80,2.84,2.10,2.20,2.68,1.11,0.57,1.86,1.75,3.60,2.24,2.79,2.32,0.82,-0.08,-0.55,0.60,0.93,0.26,0.47,-1.38,-1.77,-0.68,0.20,0.29,-0.17,0.55,0.32,0.55,1.45
"ex2197",0.61,0.01,-0.72,-2.23,-0.74,0.85,0.45,0.76,0.06,2.89,3.62,4.32,4.82,3.85,2.66,3.54,2.81,2.12,2.31,0.95,0.53,-0.09,-1.42,1.26,1.04,1.25,-1.46,0.77,0.33,-0.48,-0.93,0.23,1.61,-0.22,-1.16
"ex2198",-1.55,1.95,-0.34,1.57,0.22,0.01,1.22,0.18,1.89,2.59,4.55,2.08,3.49,6.29,5.50,4.32,3.85,0.30,0.87,-0.83,0.34,1.18,0.69,-0.87,0.54,-0.10,-1.32,0.87,-0.80,-0.63,-0.83,1.62,-0.07,-0.15,0.57
"ex2199",-0.93,1.44,1.03,1.79,0.04,0.71,2.05,5.30,2.57,5.34,4.21,3.30,2.07,2.87,0.77,3.02,-1.29,-0.36,0.64,-0.84,-1.20,-0.09,-0.80,0.30,0.51,0.27,1.52,-0.96,1.27,0.40,-1.61,-0.26,-1.43,-0.93,-2.01
"ex2200",0.88,0.31,1.21,2.12,0.50,0.63,3.29,2.84,2.33,1.80,4.44,2.86,3.83,3.67,4.12,4.41,3.07,2.47,1.75,1.00,0.19,0.51,-0.43,-0.10,-0.03,-0.39,1.19,1.92,1.18,0.81,1.98,-0.16,0.74,-0.61,-0.85
"ex2201",-1.14,-0.27,0.54,1.95,3.64,4.12,6.40,3.33,1.10,3.17,3.50,2.06,1.81,2.60,1.28,2.88,2.91,1.89,1.10,-1.02,0.66,-0.21,-0.65,-0.02,-0.51,1.59,-0.41,-1.12,0.74,0.94,0.15,-1.05,1.38,-1.81,0.79
"ex2202",0.87,-0.67,-1.89,-0.18,0.21,1.60,-0.12,1.33,1.55,0.61,2.86,3.07,3.25,2.93,5.38,6.61,2.74,0.50,0.39,0.84,1.58,-1.75,0.03,-0.93,0.37,0.89,1.33,0.65,0.63,-0.34,0.61,0.68,0.90,0.69,0.37
"ex2203",0.06,1.53,-0.04,0.88,2.22,3.83,2.96,4.88,3.92,4.86,5.34,1.61,3.67,2.55,1.23,0.45,-0.31,0.75,0.91,0.89,0.56,0.44,0.01,0.60,-0.32,-0.48,0.85,-0.41,-1.91,1.62,-1.23,-1.45,0.48,1.00,-0.58
"ex2204",0.73,-0.52,0.38,2.12,1.12,3.22,3.11,4.47,4.74,5.78,3.42,3.09,3.54,0.45,2.06,0.08,-0.23,0.73,1.09,0.58,1.06,-1.46,-0.27,-1.43,-0.91,-0.15,0.43,-1.62,1.26,-0.26,0.76,1.10,2.02,1.23,0.00
"ex2205",-1.50,-1.55,1.57,0.56,0.70,0.16,1.08,2.83,2.59,4.13,4.82,5.76,3.50,1.09,3.10,1.46,1.40,1.64,0.60,0.14,1.02,0.11,-0.44,0.47,-0.19,-0.44,0.70,0.23,1.07,-1.60,-0.29,2.36,-1.20,0.22,-0.01
"ex2206",0.23,-0.71,1.12,-0.93,0.45,-0.04,2.32,0.12,3.33,2.99,3.07,4.18,5.21,4.22,3.17,1.69,0.11,2.01,2.10,-0.80,0.23,0.32,-1.33,-0.71,-0.39,0.54,0.02,-1.02,-0.41,1.24,0.38,0.06,0.16,0.02,-0.64
"ex2207",-1.34,0.77,2.34,2.32,3.59,3.69,4.32,4.05,2.14,2.67,2.81,2.29,2.21,1.77,1.10,-0.20,2.04,0.42,-1.88,-0.67,0.24,0.58,-1.52,-0.68,0.43,-0.97,-0.12,-0.92,0.63,-0.04,-0.76,0.47,-0.49,0.78,-0.23
"ex2208",-0.66,1.96,0.14,0.34,3.96,4.81,5.78,6.41,2.28,0.81,1.65,1.84,0.79,-0.32,-0.22,1.21,1.15,0.59,0.22,0.74,-0.08,0.18,0.32,-0.10,0.08,-0.40,0.09,2.04,0.73,1.05,1.66,0.37,0.52,0.35,-0.38
"ex2209",-0.18,-0.34,0.68,1.91,2.68,2.17,2.55,2.51,2.28,0.54,3.28,-0.29,0.67,2.02,2.76,1.34,0.93,2.51,-0.51,0.77,1.09,0.29,1.16,-0.79,1.16,1.74,0.86,-0.63,-0.52,-0.73,-0.05,-0.61,0.36,0.90,1.08
"ex2210",0.47,0.06,0.98,2.25,3.06,1.50,4.03,4.61,4.31,4.87,2.85,2.48,2.39,1.01,0.21,0.77,0.44,0.10,1.04,-0.16,0.56,-0.81,0.78,0.33,-1.15,0.61,-0.10,0.06,-0.07,0.34,-0.67,0.42,-0.82,1.17,3.01
"ex2211",-0.53,0.30,1.84,-0.07,-0.12,4.14,5.31,4.22,4.14,4.89,3.39,3.07,2.43,2.68,2.63,-1.17,1.19,-0.24,1.02,-0.46,1.38,0.67,0.37,0.42,-0.58,-0.95,-0.55,-0.61,-0.74,-0.38,1.27,0.27,0.24,-0.38,-0.17
"ex2212",0.26,1.55,-0.84,-0.53,0.38,2.66,4.29,4.14,3.47,2.78,4.20,4.72,3.09,3.47,1.35,2.96,1.30,-0.59,-1.52,1.43,-0.40,0.33,2.76,-1.32,-0.25,-0.67,-0.03,-0.80,-0.74,-0.49,1.70,1.36,-0.07,0.80,-1.23
"ex2213",-0.92,0.23,0.44,-2.18,0.66,2.58,1.77,0.85,0.33,2.57,3.05,4.71,2.92,3.79,5.17,4.26,1.79,1.75,1.50,1.56,-0.69,-1.17,0.95,-0.48,-0.19,1.73,0.90,-0.73,-1.22,-0.51,-2.45,0.29,0.47,0.47,-0.46
"ex2214",-0.12,2.06,2.54,0.70,4.39,3.06,4.05,5.29,1.88,3.69,2.35,2.31,0.17,1.75,1.18,-0.26,0.10,1.16,0.25,-0.52,-1.83,-1.35,-0.75,-1.59,-0.28,0.49,-0.90,-0.55,-1.01,-1.36,-0.95,-2.02,-0.43,-0.67,-1.07
"ex2215",0.44,0.31,3.84,4.33,2.96,5.95,4.41,5.89,4.15,2.33,2.46,1.60,1.32,-0.31,1.03,-0.51,-0.61,0.52,0.58,-0.46,-0.17,0.25,-0.39,1.50,-1.80,0.16,0.20,-0.90,-0.48,-0.36,1.93,0.52,-0.58,-1.18,-0.77
"ex2216",-0.75,-1.07,-1.25,0.84,1.14,2.14,-0.30,1.36,2.15,1.50,2.63,1.86,4.14,3.36,2.55,4.51,2.77,2.11,1.85,0.37,-3.00,-0.26,0.91,1.43,0.67,0.20,-0.36,-0.92,0.27,0.34,0.24,-0.64,1.55,1.03,2.11
"ex2217",-0.29,0.39,-0.28,-0.28,-0.27,-0.47,0.81,0.39,2.03,1.17,2.07,2.49,3.78,5.36,4.51,4.27,3.00,2.25,2.03,2.53,-1.73,-0.61,-0.11,0.45,1.41,0.44,1.77,0.09,1.21,1.61,-0.03,-1.28,0.07,-0.35,-0.92
"ex2218",-0.33,1.48,0.44,2.24,0.87,1.89,3.54,-0.29,2.02,1.92,3.71,0.58,0.82,1.42,4.14,2.49,4.78,1.75,2.30,-0.35,1.14,-0.60,-0.25,0.54,0.38,0.27,1.54,1.12,-2.03,-0.05,-0.31,1.53,0.34,-0.70,0.91
"ex2219",0.91,2.60,-1.31,-0.20,0.91,0.09,-0.25,0.05,0.70,2.63,3.83,2.95,3.97,4.16,4.97,2.76,3.92,1.04,2.79,-0.07,-0.04,0.99,0.29,-0.05,0.94,0.84,-0.25,-0.14,-0.27,-1.74,0.34,-0.58,-0.87,1.16,-0.03
"ex2220",0.36,-0.60,0.88,0.98,-0.01,3.19,3.44,2.73,3.02,3.35,4.90,4.31,3.77,1.96,2.59,1.64,0.68,0.64,-0.37,-0.84,0.15,0.66,0.66,-0.34,0.32,1.78,0.97,-0.58,0.93,-0.25,-2.32,0.69,0.94,0.09,-2.10
"ex2221",-0.79,2.35,2.31,4.03,3.52,4.04,6.66,5.29,4.88,5.21,1.38,1.36,1.02,-0.53,0.51,-0.01,0.10,0.60,-0.92,-1.41,1.24,2.21,-0.32,-0.13,-0.48,0.42,-0.64,-0.89,0.94,0.10,0.75,-0.55,0.13,-0.64,0.14
"ex2222",2.37,-0.92,-1.58,-0.31,-0.24,1.13,-0.24,2.72,4.57,3.64,6.31,5.26,3.71,3.31,3.42,1.55,2.27,-0.71,2.52,1.08,-1.07,-0.01,0.36,-0.75,-0.02,0.61,0.93,0.37,-0.58,0.70,-0.88,-0.82,1.16,0.45,2.92
"ex2223",-0.12,0.80,0.68,0.53,1.71,0.38,0.51,2.58,5.10,6.64,4.26,5.90,2.97,4.24,1.70,-0.03,2.00,0.60,-0.18,1.19,-2.50,0.69,-0.73,-0.84,0.38,0.13,0.54,0.12,-0.11,0.35,-0.23,-1.03,-0.64,0.34,0.80
"ex2224",-0.14,-0.34,1.75,-0.53,0.97,0.54,-0.55,1.04,0.00,2.07,1.52,1.85,3.89,4.29,6.74,3.15,2.26,3.03,0.73,1.06,0.62,-0.62,0.75,-0.50,-0.94,-0.68,-0.17,1.16,-0.27,1.36,0.51,1.49,1.75,0.80,-1.24
"ex2225",1.36,-1.06,-0.32,0.15,1.27,1.54,-0.79,1.92,3.12,3.68,5.27,2.19,5.08,3.94,2.21,1.39,1.14,1.26,0.36,-0.93,-1.84,1.39,0.10,-0.63,0.39,0.56,0.19,-0.93,0.57,-0.86,-1.50,-0.79,-0.73,2.51,-0.15
"ex2226",1.85,-1.79,0.56,1.11,-0.09,1.62,0.69,2.36,0.97,2.94,4.73,3.76,3.44,6.06,6.58,6.06,2.32,1.32,1.87,1.28,-0.37,-0.81,0.27,0.64,0.29,0.03,0.81,1.76,0.68,0.20,-0.61,-1.28,1.56,0.25,-0.01
"ex2227",-0.34,-1.37,0.96,3.40,1.99,4.07,4.33,2.54,3.15,2.17,1.64,2.02,0.08,1.81,1.09,0.48,1.47,0.17,-1.63,-0.51,0.08,-0.38,-0.43,-0.12,0.24,0.55,-0.62,1.88,-1.39,-1.18,-0.95,0.16,0.01,0.29,0.05
"ex2228",-0.41,0.97,0.51,-0.86,-0.60,1.89,-1.34,-0.09,0.50,1.77,1.22,2.86,4.08,5.37,6.43,7.67,4.34,3.63,2.49,0.91,0.92,-0.61,-0.70,-1.26,0.33,0.03,0.07,-0.50,-0.18,-0.86,-0.03,0.80,-0.66,0.72,2.25
"ex2229",0.95,-0.40,-0.00,0.37,-1.28,1.28,1.06,0.50,2.34,4.45,5.30,5.51,3.96,4.12,4.39,2.58,0.40,0.99,2.00,-1.63,-0.55,-0.19,-0.66,-0.77,-1.49,0.91,0.28,-0.12,1.55,0.63,1.37,-0.35,-1.12,-0.26,0.38
"ex2230",-1.68,1.10,-1.98,0.19,-0.96,-0.17,1.47,0.94,2.95,3.18,3.60,6.11,3.49,3.61,3.71,3.02,2.13,2.08,1.29,0.42,0.27,0.19,-0.48,0.97,0.84,0.36,0.33,-1.07,0.99,-0.47,0.32,-0.38,0.79,-0.59,1.83
"ex2231",-0.11,-0.52,-0.72,-0.79,-1.53,1.07,1.03,1.29,3.61,4.17,3.93,5.48,2.80,4.05,2.38,1.73,2.07,1.29,1.59,0.25,-0.89,-0.37,-0.28,-1.51,1.03,-0.29,0.59,-1.07,-0.11,-0.97,-1.09,-0.67,-1.78,-0.63,1.49
"ex2232",-1.15,-0.79,0.03,-0.66,-0.53,2.48,0.10,-1.05,-0.19,1.00,3.46,4.60,3.90,4.19,4.72,4.38,5.00,1.57,2.15,3.32,0.59,0.79,1.01,0.19,-0.44,-1.72,-0.44,1.14,0.33,2.13,0.14,0.85,0.60,0.98,-0.71
"ex2233",-0.23,0.75,0.83,-0.31,0.61,1.67,2.70,4.54,3.72,4.25,5.58,6.26,2.93,2.41,1.50,2.24,0.41,1.26,0.33,0.44,-1.38,0.24,-0.96,1.18,0.81,-0.81,1.34,1.50,-0.07,0.53,-0.83,0.53,1.34,0.06,1.02
"ex2234",-1.51,-0.51,0.10,0.65,1.14,0.86,0.86,4.01,5.66,5.79,5.61,4.86,4.10,5.24,3.52,0.76,-2.22,0.28,-0.59,0.13,0.24,-0.04,-1.16,0.17,1.48,-2.27,1.93,-0.06,0.10,-1.40,0.26,-0.94,-0.08,-0.83,1.37
"ex2235",0.57,0.57,1.32,2.49,1.82,1.81,4.99,1.67,3.30,0.73,1.86,2.02,1.56,1.60,1.58,0.38,0.59,0.16,-0.53,-0.80,0.49,-0.82,-0.77,-0.40,0.48,1.33,0.08,-0.08,-0.37,-0.90,1.12,-0.23,-1.52,-0.67,-1.23
"ex2236",0.46,-0.74,1.05,-1.30,1.56,-0.77,0.09,1.56,0.08,3.30,3.03,1.80,4.90,3.46,6.52,7.10,3.29,5.13,1.75,-0.38,1.50,0.14,0.25,-2.22,0.51,-0.39,1.26,1.03,-0.54,0.63,-0.18,1.33,-0.06,0.26,-0.57
"ex2237",-0.92,1.32,1.56,1.89,2.31,3.16,6.64,3.65,5.09,4.12,2.18,2.65,1.19,0.19,1.10,-1.27,1.33,0.22,0.65,1.57,-0.17,-0.75,-0.61,-0.58,-1.06,-0.48,1.13,0.03,1.20,-0.35,-0.98,0.42,-0.46,0.40,0.12
"ex2238",1.75,-0.84,0.23,-0.02,-0.13,1.05,1.09,2.49,1.10,1.98,4.23,3.48,4.96,3.16,4.29,5.95,2.73,1.65,0.19,0.73,0.28,0.11,0.63,-0.09,1.97,0.66,-0.52,-0.79,-0.12,0.47,1.27,-0.73,-1.05,-1.44,0.48
"ex2239",-0.76,0.30,-1.78,0.32,-0.93,1.63,2.86,3.47,3.60,6.60,5.42,4.34,3.28,2.29,2.12,-1.53,1.41,0.32,0.10,-0.67,-0.39,-1.53,2.29,-1.61,-0.06,0.93,-2.19,-0.45,-1.09,-0.55,-0.62,0.55,1.20,-0.11,2.10
"ex2240",2.09,1.04,-2.24,-0.27,1.48,2.08,2.87,3.24,3.97,5.31,5.59,4.69,4.31,3.11,0.47,0.66,0.35,0.40,-0.18,0.77,0.09,-1.66,1.21,-0.92,-0.68,-1.01,-1.14,-0.07,-0.49,0.33,1.84,0.05,0.54,1.13,-0.28
"ex2241",0.76,2.61,1.48,1.14,2.08,5.19,6.87,6.58,4.65,2.65,0.30,2.27,-1.05,-2.64,0.13,0.69,0.20,-1.82,-1.39,0.43,1.59,1.00,1.24,1.43,0.13,0.82,0.61,-1.69,-0.41,0.51,-0.32,-1.06,-0.79,-0.60,-1.28
"ex2242",0.69,0.75,0.58,-0.66,1.38,1.99,3.52,2.22,2.04,1.07,2.94,2.36,2.32,3.11,5.37,3.78,1.53,0.58,0.50,1.13,0.08,-1.40,-0.88,0.05,-2.91,-0.93,1.50,0.22,0.71,0.40,0.12,0.46,-1.53,0.90,-0.08
"ex2243",-1.03,0.55,0.48,-1.20,0.49,0.87,1.25,1.35,3.42,5.41,4.53,3.12,5.11,3.27,3.58,3.49,2.41,2.11,0.07,0.55,-1.45,0.86,-0.85,-0.17,0.48,1.29,-0.45,-1.60,0.74,-0.43,0.21,-0.58,1.26,2.18,-0.45
"ex2244",-1.22,-0.30,-0.46,1.75,1.49,0.35,3.31,3.51,3.21,4.04,2.91,3.13,2.74,2.96,2.61,1.62,-0.71,0.46,0.18,1.52,-0.81,-0.13,-0.20,-0.51,0.26,-0.22,0.73,1.70,-0.97,0.15,-0.30,0.03,0.54,0.47,0.44
"ex2245",1.39,-0.49,-0.45,-0.45,-0.59,-0.02,1.16,1.68,3.41,3.22,2.62,5.02,3.51,2.29,2.16,2.56,2.09,-0.39,0.68,0.90,0.92,0.46,0.56,0.76,0.04,0.06,0.15,-0.36,0.26,-0.26,0.69,0.05,0.07,-1.27,0.54
"ex2246",0.19,2.09,-0.09,1.43,0.32,3.22,3.32,3.55,3.79,4.24,4.92,4.49,1.28,2.15,0.47,1.14,-1.05,1.11,0.58,0.25,0.98,-1.11,1.18,-0.85,-0.96,1.08,-1.77,0.80,-0.69,-0.65,1.46,-1.20,0.14,0.17,-0.54
"ex2247",0.75,0.46,-0.47,-0.05,2.10,3.31,3.61,3.71,4.81,4.36,4.54,4.72,2.38,1.52,2.79,0.35,0.15,-0.20,0.11,1.86,-0.35,-1.80,0.52,-0.90,1.13,-1.16,-0.06,1.84,0.86,1.11,-0.24,0.61,0.22,-1.01,0.72
"ex2248",-0.72,1.25,-0.71,1.35,1.14,0.97,3.25,0.88,1.60,4.48,6.56,3.41,4.27,4.32,2.37,0.42,-1.26,1.98,1.67,0.01,-0.75,0.41,-0.63,-1.38,-0.10,-0.58,-0.25,-0.06,1.52,-1.08,-0.76,-0.74,1.09,-0.60,-1.43
"ex2249",-0.20,1.47,0.87,-0.14,2.24,1.58,-0.29,-0.47,0.80,0.66,1.60,1.50,1.79,4.23,5.08,3.77,3.28,2.44,0.38,1.16,1.08,0.50,0.68,-0.57,0.38,0.26,-0.54,-0.67,-2.26,1.24,0.17,0.32,-0.53,-1.52,-0.25
"ex2250",0.33,1.13,2.01,4.15,4.70,4.49,6.38,5.91,4.84,2.93,2.18,-0.10,1.29,-0.59,0.90,0.25,-0.99,0.04,-0.02,0.26,0.24,-0.08,0.09,-0.17,0.62,0.18,0.32,2.00,-0.58,-0.10,0.73,0.33,-1.55,0.49,-1.71
"ex2251",-0.13,0.68,1.13,-0.27,0.31,1.13,2.23,-1.25,1.26,1.83,3.46,4.70,5.39,4.29,5.68,3.70,2.67,3.18,0.78,-0.46,-0.49,-1.49,0.48,-0.03,0.49,0.50,-0.53,-0.41,-0.28,-0.95,0.44,-1.12,0.08,0.02,0.69
"ex2252",0.29,-0.45,-1.56,-0.65,-1.03,0.84,1.95,2.74,4.13,2.90,6.03,4.02,5.88,3.10,0.67,-1.06,-1.42,0.28,-0.29,-0.36,-0.11,-0.52,0.90,0.48,0.32,-1.05,-0.09,-0.91,-0.54,0.53,-0.28,-0.02,0.41,-1.13,-0.23
"ex2253",-0.85,2.18,-0.90,0.18,-0.20,0.64,0.34,1.59,1.18,5.27,3.78,3.17,2.83,5.29,4.26,3.62,3.65,3.00,2.01,0.44,-0.12,0.16,-0.31,-0.37,0.37,-0.43,0.51,-0.04,0.05,-0.48,-0.20,0.74,0.40,-0.49,-1.45
"ex2254",-0.74,0.42,1.78,2.23,2.63,4.12,6.00,4.33,1.98,3.06,3.19,0.76,0.00,1.87,0.13,0.04,-0.39,-0.26,-0.22,-1.36,-0.06,0.17,-0.72,0.31,-1.79,-0.51,0.11,-0.56,0.98,1.73,-1.11,0.75,-1.26,0.70,-0.17
"ex2255",0.36,-0.12,0.69,2.80,4.63,4.40,4.83,4.41,2.09,2.91,2.86,0.68,2.98,1.68,2.32,1.46,4.04,3.06,-0.17,1.00,0.27,1.55,0.49,2.10,1.16,-1.81,-0.03,-0.18,-0.62,-0.70,0.41,-1.95,-0.21,0.85,0.26
"ex2256",0.25,0.68,1.32,2.40,3.77,3.90,5.30,4.16,4.80,2.10,1.76,2.85,1.41,2.10,-1.12,0.71,-1.47,0.61,-0.12,-0.50,-0.36,0.57,0.95,0.66,2.45,0.28,-0.74,-0.89,0.01,-0.52,-1.17,0.21,0.43,1.48,-0.50
"ex2257",-0.67,-1.17,0.49,-0.32,1.88,1.88,2.69,1.44,3.81,2.73,4.65,4.75,4.07,3.01,3.02,1.65,1.07,0.62,0.77,0.78,0.20,0.48,-0.53,-0.35,-0.52,-0.65,-0.33,0.82,0.43,0.06,-0.64,0.61,0.91,-0.81,-0.12
"ex2258",0.77,-0.24,1.93,0.42,2.05,4.91,4.15,4.39,4.53,4.40,3.13,2.95,0.09,0.38,0.83,-1.49,-2.31,-0.63,0.29,-0.55,0.61,0.32,-0.26,0.36,0.06,-0.62,-0.01,0.93,-0.06,-0.99,-0.16,0.15,-0.50,0.20,-1.89
"ex2259",1.23,-1.10,1.40,0.84,2.82,5.32,5.06,4.02,4.86,2.84,1.88,1.81,0.37,0.44,1.48,1.26,2.85,1.67,-0.66,0.41,0.06,-0.25,0.24,0.78,-0.58,0.81,0.20,-0.13,0.76,0.82,2.43,-0.19,-2.82,-2.16,-0.09
"ex2260",0.38,0.11,1.68,5.49,1.17,5.20,3.65,4.80,3.85,3.64,2.72,2.29,-0.02,0.57,-1.17,0.54,-0.86,1.52,0.62,-0.85,2.25,1.77,-0.27,-0.34,0.12,-0.01,0.89,0.20,-0.19,0.53,-3.38,-0.67,0.14,0.21,-0.63
"ex2261",0.46,-1.73,0.73,-0.04,-0.63,1.87,0.94,-0.28,0.42,3.68,2.89,4.02,2.76,3.97,4.17,4.99,2.82,3.00,1.56,-0.56,0.92,-0.94,0.16,-0.99,0.00,-1.17,0.78,1.17,0.20,-1.33,-0.28,0.67,-1.24,-0.39,-1.26
"ex2262",0.74,-0.90,-0.59,0.54,2.05,2.84,1.88,2.17,4.54,3.04,4.55,2.86,2.30,3.27,4.20,1.31,3.18,0.64,2.63,0.60,-0.81,0.16,0.79,0.92,0.62,1.26,-2.08,0.38,-0.37,-0.85,-0.16,-0.06,-0.30,-1.00,-0.71
"ex2263",1.04,0.22,-0.54,-0.81,-0.18,1.11,-0.20,2.19,-0.42,2.85,5.97,3.68,2.19,3.02,2.62,2.81,0.81,2.68,1.20,0.04,1.61,1.50,0.33,-0.09,0.98,0.91,1.62,0.20,1.00,-0.64,0.35,0.86,-1.01,-0.41,-0.45
"ex2264",-0.54,-0.26,0.82,1.94,3.42,4.96,3.79,2.48,3.13,1.97,1.46,0.71,0.96,1.13,1.78,0.69,1.16,1.95,0.59,1.07,2.44,0.91,1.56,-1.17,-0.32,0.99,-0.90,-0.23,0.02,-0.26,1.70,0.58,-1.38,-0.78,0.26
"ex2265",0.43,0.55,1.13,0.68,0.29,1.90,0.95,3.45,2.31,3.79,3.88,4.20,3.23,3.45,2.29,1.29,2.41,0.29,2.00,0.15,-0.38,1.07,0.18,-1.57,-0.75,1.26,-0.76,-0.22,2.31,-0.49,-0.15,0.10,1.47,0.07,-0.13
"ex2266",0.83,0.97,0.68,-0.05,1.15,1.33,3.28,4.01,3.89,5.81,5.90,4.01,4.22,4.00,1.76,2.02,-0.97,-0.76,0.26,-0.71,-0.36,-1.99,0.01,1.96,-0.56,0.97,-0.00,0.85,-0.76,1.39,-0.75,-0.04,-1.07,0.65,-0.48
"ex2267",-0.66,-0.09,1.49,-1.38,-0.82,-0.94,0.39,1.81,3.99,5.04,4.67,5.58,4.74,4.40,2.82,2.72,1.04,1.00,1.73,0.49,-0.42,0.59,-0.36,-1.38,0.16,-0.85,0.89,2.15,2.27,0.85,1.30,-1.19,0.97,-0.85,-1.86
"ex2268",-0.92,0.55,0.62,-1.85,1.26,2.23,3.31,2.38,0.70,2.92,2.23,1.67,1.39,4.21,4.82,0.98,2.12,1.67,-0.30,1.60,0.29,0.77,-0.66,-1.60,0.39,1.29,-1.06,0.52,0.86,0.24,-0.65,0.47,-1.22,-0.95,0.00
"ex2269",0.01,-0.26,-0.04,3.35,2.55,2.70,2.39,2.59,5.58,5.19,4.52,6.79,3.89,2.82,1.92,1.45,0.66,-0.93,1.55,2.44,1.49,-0.55,-1.56,1.00,0.13,0.74,0.99,-1.86,-0.79,-0.84,-0.26,-0.56,0.80,0.77,0.66
"ex2270",0.10,0.76,-0.59,-0.24,0.87,1.97,1.22,1.04,1.79,1.13,1.82,2.28,2.90,4.79,5.23,2.19,4.31,3.83,1.76,0.62,-0.76,-0.37,-2.56,-0.31,1.34,1.67,-0.98,-0.55,-0.20,1.21,-0.66,-3.15,-0.04,0.75,-0.39
"ex2271",1.51,-0.09,2.01,0.12,0.96,-0.31,1.88,3.39,3.19,3.25,5.45,4.03,3.59,3.74,0.61,0.69,-0.26,-0.77,-1.52,0.99,0.71,0.47,0.50,-1.01,0.22,-0.75,-0.71,0.78,-0.43,-0.58,-0.14,0.76,-1.36,-0.78,-0.65
"ex2272",-1.83,-0.59,-0.39,0.90,1.61,2.89,0.08,2.09,1.47,2.40,1.53,0.30,0.16,4.43,2.86,2.50,1.53,3.57,0.80,-0.78,0.49,-1.52,-0.11,0.45,0.36,-0.99,-0.40,-0.14,1.69,-0.77,0.05,-0.55,0.21,-2.20,1.93
"ex2273",0.18,-0.10,0.29,-0.70,3.25,5.50,4.97,3.98,3.86,4.02,3.81,0.70,1.28,0.67,2.03,0.98,0.27,-0.09,0.28,0.38,1.43,0.66,-1.20,0.71,0.36,-1.05,0.29,-0.40,-0.96,-0.04,0.22,0.37,-0.58,-0.41,-1.29
"ex2274",0.75,0.54,0.45,1.53,3.86,1.11,0.90,3.21,1.35,-0.24,2.81,3.96,3.26,5.28,4.15,2.50,3.14,2.91,3.32,0.58,-0.18,0.35,-1.37,0.75,-0.20,-0.42,-1.36,-1.34,1.23,-0.27,-0.51,1.43,-0.23,1.50,-0.56
"ex2275",0.91,1.01,3.71,1.66,4.93,5.28,5.93,4.80,3.70,3.85,1.54,0.05,-0.04,1.43,-2.36,1.17,0.05,-0.77,-0.33,0.86,1.13,-0.15,1.22,0.44,-1.16,-0.19,-1.11,-1.48,0.22,-0.54,-0.64,0.43,-1.57,-0.68,0.09
"ex2276",0.47,1.57,-0.52,0.68,-0.84,0.99,3.09,3.81,4.13,5.34,5.96,4.89,3.37,3.00,1.97,0.84,-0.56,0.24,-0.51,-0.89,0.37,0.27,-2.22,1.77,0.55,-0.49,-0.58,0.25,-0.88,1.41,0.53,-0.92,0.10,0.06,1.18
"ex2277",-0.42,-1.32,-0.01,0.34,-1.37,1.85,1.30,0.97,1.37,1.62,1.84,1.33,3.29,4.51,5.97,2.85,4.34,2.71,1.30,2.00,-0.59,-0.82,-0.98,0.10,0.71,0.40,-0.30,1.48,-0.36,0.29,0.46,0.59,-1.27,0.46,-0.12
"ex2278",-0.33,0.52,0.47,-0.49,0.64,0.05,2.51,1.66,1.54,0.83,0.30,3.71,3.95,3.85,3.97,5.02,3.68,1.35,1.49,0.47,-0.82,0.42,1.19,-0.32,0.59,-0.54,-0.91,-1.06,-1.00,-0.16,0.03,0.29,-2.96,-1.24,1.32
"ex2279",1.43,2.30,1.16,3.19,4.60,4.25,3.89,2.03,2.69,2.75,0.83,1.09,1.14,-0.52,1.10,0.03,1.12,0.56,0.54,1.91,1.41,-0.40,0.12,-1.43,-0.06,0.05,-0.68,1.30,-1.61,-1.05,0.50,-1.05,2.19,-0.33,-0.74
"ex2280",-1.80,-0.87,1.85,2.22,1.85,2.69,4.20,6.07,0.18,4.10,5.12,3.08,2.87,0.44,0.74,0.92,-1.10,1.87,0.20,0.84,0.02,-1.59,0.63,-0.35,-0.49,-0.62,-0.56,-1.32,-0.43,-1.58,-1.23,-0.15,-1.14,0.54,1.49
"ex2281",-0.33,0.59,1.79,-0.50,0.31,1.10,0.95,3.24,4.13,3.27,4.19,3.84,2.99,1.47,2.52,1.32,2.22,-1.75,0.08,-0.72,0.11,-0.29,2.01,-0.33,-0.63,-1.07,0.88,-0.43,1.23,0.71,0.47,-1.17,-1.83,-0.09,0.26
"ex2282",-0.52,-2.41,2.40,-1.15,-0.88,0.07,-0.47,0.63,0.41,2.89,3.31,3.30,3.04,4.05,4.32,3.63,3.32,2.73,1.90,0.36,-0.33,1.60,1.17,1.11,0.94,-0.40,-0.81,-0.34,-0.38,0.67,-0.40,1.29,-0.13,-0.23,0.98
"ex2283",-0.35,-1.16,-0.66,-1.08,1.22,-0.66,2.28,1.98,2.33,3.90,3.98,4.66,4.51,3.15,4.11,2.07,0.90,1.45,0.82,1.38,0.67,-0.09,0.27,-0.51,-1.62,-0.07,-0.91,-0.48,0.34,1.13,-0.20,-1.78,-0.83,1.10,0.13
"ex2284",-1.21,1.30,1.49,-0.56,0.99,-1.86,1.48,1.16,-0.86,2.78,1.78,5.39,3.99,5.21,6.62,4.13,3.61,4.13,2.66,1.09,1.24,0.80,0.75,0.82,-2.81,-0.98,0.12,0.94,0.91,0.56,-0.29,0.36,0.17,0.75,0.44
"ex2285",-0.43,-0.48,0.51,-0.86,2.07,3.76,2.14,5.35,3.86,3.03,5.02,4.94,1.81,2.48,0.65,-0.11,0.48,2.67,0.80,-1.95,1.08,0.55,0.44,1.34,0.25,0.43,-0.21,-1.48,-0.12,0.88,1.74,1.22,1.69,0.27,-0.93
"ex2286",0.30,-0.28,0.46,1.33,1.19,0.90,4.46,3.16,2.37,0.26,0.99,2.04,2.78,3.17,3.67,4.07,2.34,1.94,0.53,0.82,-0.41,0.56,1.28,-0.26,0.94,-0.71,0.74,0.36,-0.88,0.72,0.31,-1.35,-1.98,-0.97,0.11
"ex2287",-0.40,0.72,1.23,1.41,-0.28,0.83,2.65,1.60,2.53,3.80,5.94,5.58,4.33,4.57,2.67,0.55,0.05,1.40,0.45,1.25,0.84,0.22,-0.36,0.67,-0.40,-0.12,-0.33,-0.50,0.89,-0.80,-0.04,0.33,-1.11,-0.69,0.15
"ex2288",-2.10,-1.76,-0.10,2.03,1.22,2.98,1.91,3.90,4.10,6.64,5.12,3.78,2.98,3.50,0.62,0.98,1.03,-0.27,-0.55,-1.75,-2.30,1.23,0.33,0.37,-0.19,-0.38,-1.36,0.42,0.39,0.50,0.05,0.90,-0.90,-0.96,-0.02
"ex2289",1.92,1.54,0.92,1.86,2.27,2.97,4.56,4.58,3.76,1.23,1.74,1.02,1.04,-1.28,0.95,0.53,-1.25,0.40,0.62,1.46,1.76,-0.48,0.53,-0.57,-0.51,0.02,0.18,0.31,-0.42,-0.33,-0.81,0.14,0.98,-0.78,0.40
"ex2290",-0.07,-1.41,2.50,0.01,1.36,0.72,3.43,3.01,1.83,1.58,0.72,1.56,3.19,3.25,4.24,2.20,2.94,2.31,1.01,-0.88,-1.18,1.39,-1.20,0.23,1.38,1.47,-0.48,0.88,2.10,0.37,0.02,1.55,-1.27,1.45,-0.39
"ex2291",-0.96,0.99,-0.32,1.79,1.68,2.40,2.98,4.86,2.26,5.49,3.30,2.99,1.70,1.71,-0.15,1.45,0.21,-0.58,-0.31,0.12,-1.30,-0.79,-0.16,-0.62,1.58,1.03,-1.29,1.01,0.48,0.34,-0.69,0.48,-0.53,-0.72,-1.01
"ex2292",1.62,-0.60,-0.69,1.82,-0.07,0.99,1.98,2.86,4.81,4.60,5.47,5.31,1.89,3.31,2.31,1.18,-0.68,0.54,-0.27,0.93,0.43,-0.93,-1.06,0.72,-0.49,-0.24,0.75,-0.16,-0.14,0.03,1.03,-0.08,-0.26,0.12,0.34
"ex2293",-1.08,1.91,1.42,1.28,0.25,0.42,0.66,1.08,1.76,0.40,3.49,2.50,4.09,3.10,5.94,3.58,1.68,2.10,3.57,0.23,-0.94,-1.41,1.16,-1.33,-1.92,-0.93,-0.08,-0.16,-0.18,0.72,-0.06,-1.18,0.67,0.35,-0.35
"ex2294",-1.22,-0.10,-1.85,1.73,2.83,4.26,4.04,3.69,2.11,2.99,3.11,4.01,2.18,1.46,2.54,-1.15,-1.57,-0.39,-0.56,1.03,-0.49,-0.75,-1.79,0.08,-0.31,0.26,-1.10,0.53,0.35,-0.60,0.03,0.51,-1.06,-0.11,-0.24
"ex2295",-0.75,-0.25,2.55,1.92,2.68,4.71,4.08,4.62,3.00,4.65,3.90,2.52,1.20,1.45,-0.86,-0.15,0.17,1.31,-1.19,-0.51,-0.62,0.17,0.86,-0.87,0.08,-0.60,-0.02,1.08,1.43,-0.47,-0.18,-0.17,-0.50,0.79,-1.40
"ex2296",-0.86,0.44,0.65,0.14,-1.38,-1.04,-1.09,-0.47,0.45,3.13,1.71,1.50,5.37,5.16,6.31,5.42,3.90,2.29,0.95,0.81,-0.65,-0.95,0.01,-0.06,0.01,-1.23,-0.47,1.67,-0.26,-0.22,-1.67,0.17,0.59,0.79,-0.96
"ex2297",0.76,-0.06,0.10,-0.56,1.29,-0.29,2.63,3.83,4.43,4.82,5.94,3.34,3.75,3.85,1.77,1.87,0.75,1.40,-0.61,0.13,-0.20,0.19,-0.42,-0.26,-0.03,-0.30,-1.00,1.57,-0.85,-1.83,-1.04,-1.78,1.03,-0.20,-0.09
"ex2298",1.16,-0.61,0.48,2.21,0.69,1.84,1.18,-0.22,-0.20,1.51,2.80,3.85,2.64,2.35,6.52,4.39,3.61,1.63,3.45,2.57,-1.21,-1.88,0.06,0.76,0.23,0.40,-0.36,-1.29,0.39,-0.68,-0.06,-1.57,0.56,0.65,0.57
"ex2299",-2.26,-0.57,-0.12,2.14,0.40,-0.41,0.10,0.98,-0.17,3.10,2.17,2.59,3.07,5.12,5.99,2.78,2.50,2.86,2.28,0.49,0.08,0.24,0.81,-0.46,1.20,0.15,0.05,-0.64,0.86,-0.93,-1.35,0.17,1.13,-1.59,1.43
"ex2300",-1.04,0.54,2.09,3.26,1.67,4.60,5.33,1.06,3.98,3.71,2.35,1.84,3.52,4.52,0.28,2.75,1.64,1.72,0.80,-0.00,0.76,-1.17,-0.73,0.19,1.39,-0.06,-0.57,2.10,-0.49,-0.38,-1.09,0.13,0.70,2.03,-1.92
"ex2301",1.38,-0.49,-0.41,-0.57,1.90,1.79,2.26,2.44,4.15,2.99,5.47,5.53,3.82,2.50,0.17,1.17,1.61,1.26,1.62,1.74,-0.77,-1.23,0.19,0.63,0.04,-1.48,0.10,0.06,0.58,1.60,1.77,-0.69,-0.28,-0.41,1.89
"ex2302",-0.84,-0.50,1.52,2.87,3.68,4.78,6.07,5.55,3.61,2.82,2.71,1.89,0.85,-0.42,0.92,0.71,0.22,-1.24,-0.52,-0.28,-0.50,-0.17,0.77,-0.37,-1.96,0.54,1.94,0.70,-1.15,1.20,0.24,-0.82,-0.11,2.14,-1.14
"ex2303",-1.27,0.60,0.22,0.07,1.08,0.21,1.15,2.25,3.44,2.95,5.17,5.02,6.09,4.11,1.99,2.43,-0.08,0.79,0.48,-0.23,0.53,1.67,-1.63,1.47,1.17,0.67,2.77,1.44,-0.86,0.94,0.34,-0.64,0.80,-0.17,-1.20
"ex2304",-0.56,-0.32,0.80,1.69,0.92,4.67,3.55,5.53,4.01,3.29,0.91,-0.25,1.28,1.70,1.66,-0.19,0.30,-1.69,-0.51,-1.41,0.87,2.51,-0.81,-0.46,0.20,0.62,-1.53,-0.62,0.19,-2.57,-0.04,-0.43,-0.82,-0.15,1.95
"ex2305",0.49,-0.13,0.96,1.57,0.91,1.68,1.07,2.44,0.67,0.80,2.59,3.66,1.85,2.01,5.03,4.21,2.40,2.51,1.72,2.58,0.46,0.52,-0.20,-1.24,-1.90,-0.27,-0.40,0.10,0.40,2.01,2.26,-1.06,0.58,-0.28,0.62
"ex2306",0.27,0.17,-0.29,-0.74,-0.82,2.65,1.13,4.55,2.80,4.95,4.12,3.38,3.25,2.14,2.11,0.27,1.19,1.62,2.16,-1.43,-0.57,-0.65,-0.41,0.72,-0.67,0.23,0.82,-0.24,0.64,-0.77,-0.23,0.77,-1.18,0.27,-0.45
"ex2307",-0.94,-0.77,0.01,-0.27,-0.32,0.41,-0.95,1.59,1.47,3.31,5.00,2.36,3.40,5.34,5.78,2.92,2.60,2.44,2.45,0.09,-0.90,-2.01,0.24,0.67,-0.07,-1.22,0.21,0.50,0.14,0.27,0.87,-1.06,1.69,0.05,1.49
"ex2308",-0.90,-0.30,0.43,0.53,0.15,1.28,2.13,0.20,0.26,0.44,1.60,2.56,3.08,6.44,5.97,3.18,4.31,2.07,0.45,-1.05,0.08,-0.07,0.37,-0.14,0.25,-0.46,1.30,0.04,-0.95,0.74,0.83,-0.55,1.09,0.52,0.31
"ex2309",-0.48,-0.62,1.05,-2.66,1.39,-0.58,0.08,-0.44,1.69,0.74,2.32,4.52,2.93,6.62,5.19,3.64,4.02,1.33,0.92,1.72,-0.01,-1.38,-1.56,2.16,-1.81,0.60,-1.04,-0.47,-0.63,-0.43,0.38,0.26,-0.58,0.77,-0.14
"ex2310",0.59,-0.54,0.91,-0.41,1.05,-0.08,3.34,2.76,6.47,4.44,5.21,3.38,5.26,2.71,1.40,2.26,0.95,2.15,0.22,1.65,-2.20,-1.62,-1.25,1.76,1.45,-0.34,-0.03,0.64,0.76,-2.52,0.82,1.24,0.12,-0.66,1.03
"ex2311",2.76,1.58,1.48,1.38,3.32,4.17,5.51,5.22,5.11,3.79,2.60,1.99,0.95,-1.05,0.22,-0.81,-0.06,-0.35,0.52,0.44,1.97,1.29,0.73,2.11,0.61,-1.12,0.77,-0.33,1.54,0.19,0.54,-0.45,-0.37,-1.10,-0.02
"ex2312",0.02,-2.04,0.19,-0.69,1.16,1.82,2.49,4.16,4.63,5.57,4.21,4.57,3.21,3.01,1.36,0.52,-0.36,0.79,-0.30,0.27,0.59,1.75,-1.25,-1.10,-0.91,1.37,1.23,-0.23,0.47,0.70,-1.14,-0.62,0.27,0.02,-0.19
"ex2313",-1.21,0.69,0.47,0.72,2.42,3.88,4.09,3.33,2.78,4.53,4.15,3.75,1.26,0.33,1.96,-0.73,-0.94,-0.80,-1.14,0.98,1.89,0.59,-2.55,-0.50,0.36,0.43,-0.29,-1.01,-0.26,1.45,0.54,1.78,0.27,1.58,0.39
"ex2314",-0.65,0.84,1.65,3.69,1.58,4.78,6.19,5.49,4.16,4.09,0.82,0.56,-1.14,-0.85,0.30,0.37,0.63,0.50,-0.06,1.28,-1.48,-1.43,-0.52,-0.30,0.86,-0.51,0.17,-0.21,-1.22,0.58,2.06,-1.15,0.43,0.78,-1.49
"ex2315",-0.17,-0.04,-1.15,-1.79,-0.03,1.73,3.58,2.98,3.51,4.33,4.38,4.23,4.51,1.32,2.81,2.31,1.49,0.25,-0.20,0.50,0.44,-0.24,-0.63,-0.50,0.84,0.03,1.48,0.65,2.49,0.04,0.71,-0.31,-1.43,-0.47,0.69
"ex2316",-2.09,0.30,0.51,4.06,5.16,6.18,5.81,5.15,3.99,2.21,3.16,1.06,0.33,-0.18,2.42,2.03,1.00,-0.98,0.16,-0.75,0.67,0.20,-0.02,-1.47,0.33,-0.28,1.75,0.23,-0.61,0.86,1.14,0.20,-0.19,0.99,0.47
"ex2317",-0.02,1.45,-0.87,0.32,-1.11,1.05,3.69,4.38,2.15,5.46,5.93,1.90,2.37,2.21,-0.11,1.68,0.73,-0.20,-1.88,-0.79,2.60,0.81,-1.14,-0.03,-1.68,-1.90,-0.49,-0.48,-0.01,-0.26,-0.62,-1.91,-0.45,0.07,0.64
"ex2318",-2.00,-0.68,-0.48,-1.63,-0.05,1.86,1.33,3.74,4.68,5.92,5.94,5.28,4.07,1.90,2.79,1.94,1.45,0.25,1.04,0.74,0.29,-0.49,0.00,1.45,0.63,1.30,-0.30,-1.49,-0.80,0.12,0.08,0.07,0.03,-0.61,-0.81
"ex2319",-0.15,1.12,0.42,0.52,-1.05,1.78,1.33,-0.17,3.31,1.76,4.77,7.12,6.48,5.74,3.26,1.68,2.37,1.09,-0.07,0.40,-0.10,-1.44,-1.15,1.14,1.45,-0.94,-0.75,0.14,1.79,1.42,0.69,-0.42,-0.56,-0.43,0.08
"ex2320",0.19,-0.06,0.68,-1.83,0.77,0.98,0.49,1.32,2.26,4.06,5.28,4.70,3.13,3.68,5.81,5.31,1.20,3.26,0.94,-0.69,0.16,-0.96,-1.64,-0.30,-0.41,1.04,1.19,0.46,0.56,-0.10,0.74,-2.25,-0.29,1.15,0.08
"ex2321",1.68,0.01,-2.14,1.03,0.12,2.54,0.15,1.92,1.20,2.83,4.38,2.51,4.56,3.16,4.40,2.88,1.28,2.16,1.60,-0.42,-1.62,-0.89,0.33,-0.26,0.11,1.00,-1.69,-1.90,0.27,-1.25,0.78,-1.43,-0.99,-0.26,1.50
"ex2322",1.39,-1.43,0.38,0.76,0.15,1.21,2.94,3.72,3.16,2.98,5.05,3.17,4.03,3.14,2.64,1.32,-1.62,0.58,1.10,-0.24,-0.24,-0.10,0.33,1.81,0.41,1.12,-1.13,-0.52,-1.07,-0.23,-0.36,0.29,-0.85,-2.04,-0.44
"ex2323",-1.47,0.06,0.38,-0.10,-0.71,-0.43,0.51,1.22,3.48,4.61,6.70,4.53,2.83,5.55,2.08,3.43,0.74,-1.40,0.22,0.04,-1.18,-0.99,0.60,-0.58,-0.12,-0.64,0.52,0.08,0.47,-2.31,0.87,0.59,-0.63,0.38,-0.07
"ex2324",-1.17,-0.95,-0.26,-0.08,-0.34,-1.38,3.09,0.21,2.11,3.44,2.96,3.25,3.15,5.32,3.65,2.62,2.62,1.41,1.19,1.14,0.61,-0.55,-0.32,0.44,0.83,0.30,-0.59,-0.65,-0.36,2.56,1.32,0.90,0.42,-1.92,1.79
"ex2325",-1.29,0.22,1.37,-0.02,2.89,-0.36,0.95,0.32,0.64,2.39,0.88,0.41,3.60,1.35,5.84,5.21,2.61,2.00,2.43,2.13,-0.77,0.05,-1.47,-0.28,0.05,-0.37,0.10,-0.00,-0.37,-1.17,-1.64,1.04,1.48,0.38,-0.51
"ex2326",1.56,0.53,-0.97,2.39,1.70,1.99,2.81,2.98,5.27,4.43,3.79,3.57,2.42,3.09,1.76,0.88,0.43,-1.31,-0.23,0.23,0.82,1.52,1.63,-0.42,0.28,-1.11,1.05,0.46,0.15,1.45,0.59,-0.31,1.57,0.11,-0.40
"ex2327",-0.09,-0.25,0.78,1.29,0.47,2.18,1.25,0.83,1.51,2.80,1.18,3.86,1.90,4.56,5.37,4.48,2.19,2.68,-0.03,0.98,-1.94,0.35,0.81,0.31,0.87,-1.11,-0.75,-0.37,0.20,0.56,-0.29,0.02,-0.34,1.85,-1.48
"ex2328",0.54,-0.22,2.98,1.73,3.40,3.51,3.84,3.35,3.92,3.88,3.78,2.42,0.74,2.14,-0.91,2.28,0.01,0.30,-0.33,-0.65,-0.27,-0.77,-0.25,-2.20,0.21,-0.74,0.28,1.17,-0.97,-0.26,0.55,0.57,0.03,1.41,0.87
"ex2329",0.29,-0.08,0.55,-0.29,-0.06,0.80,0.34,2.38,0.92,3.04,2.74,3.20,3.94,3.52,2.63,3.42,3.78,2.71,2.10,0.94,-0.94,-1.15,-0.40,-0.60,-0.12,-1.71,0.23,1.27,1.90,-0.71,-0.82,0.17,0.10,0.19,0.75
"ex2330",-0.91,1.56,2.05,2.32,2.61,3.08,4.55,0.97,3.82,1.84,0.42,3.38,1.21,3.24,1.70,1.09,1.19,-0.75,-0.01,-0.98,0.60,1.18,-1.52,-0.39,0.56,1.03,-0.17,0.64,0.55,-0.12,-0.77,-0.60,-1.64,0.20,3.23
"ex2331",1.10,0.21,2.81,2.95,2.83,6.75,3.24,4.42,1.81,1.62,0.97,2.43,1.49,2.61,0.22,0.10,-0.01,0.68,1.56,-1.17,-1.04,-0.85,-0.27,-0.16,0.06,-0.33,0.07,0.46,0.47,0.49,-0.52,-1.09,-1.64,-0.83,0.41
"ex2332",-0.10,0.66,3.69,1.95,3.88,6.29,3.83,5.53,4.35,3.38,2.90,-0.25,1.95,0.57,1.84,0.65,0.08,-2.43,0.53,2.09,-0.55,1.70,-0.23,1.66,-0.32,-0.13,-0.89,-1.48,0.47,-0.32,1.62,1.27,-0.54,-0.26,0.64
"ex2333",-0.55,1.47,-0.92,3.23,2.25,2.21,3.18,2.13,2.06,0.19,1.25,-0.59,2.07,2.38,4.50,1.77,1.87,0.46,1.45,-0.25,-0.95,-1.60,0.49,-0.41,1.40,0.23,1.02,-0.35,-0.60,1.89,0.62,1.33,2.94,0.56,-1.32
"ex2334",0.91,0.64,-0.99,2.16,-0.09,0.47,0.81,1.28,1.11,1.14,4.01,4.90,3.82,4.46,2.42,2.73,1.39,0.27,-1.15,0.92,0.65,-1.04,1.47,0.76,-0.85,-0.31,0.26,2.44,-0.16,-1.63,0.81,-0.77,1.47,-1.42,1.25
"ex2335",0.25,0.65,0.63,1.06,-0.73,0.16,0.47,1.60,2.24,3.19,2.99,3.79,2.97,4.42,4.98,5.45,3.89,2.54,1.49,-1.52,-1.64,-0.67,1.55,0.67,-0.77,0.73,-0.97,-1.14,0.25,-0.53,0.54,0.09,1.12,-0.04,-0.19
"ex2336",0.29,-0.42,0.24,1.61,2.66,4.61,5.39,2.78,4.76,3.51,3.22,3.10,1.85,1.62,1.24,0.65,0.24,-0.76,-1.54,-1.22,0.73,-0.80,-2.12,-0.01,1.56,-0.68,-1.01,-0.48,-1.70,-0.37,0.64,-1.97,-0.11,0.06,-0.61
"ex2337",-2.87,1.63,2.86,3.86,3.27,3.98,4.30,6.88,4.09,3.36,-0.24,1.79,1.27,-0.26,0.34,0.76,-0.44,0.60,0.90,2.49,-1.43,-1.42,0.49,-0.43,0.21,1.31,0.79,-2.51,0.46,0.12,-0.12,-1.98,-0.26,0.82,1.13
"ex2338",-1.10,0.61,0.74,-0.04,0.22,-0.45,-0.40,1.02,-0.86,0.74,2.52,3.29,4.51,2.97,5.91,4.95,5.03,0.24,0.82,2.78,1.88,-0.48,0.98,1.11,-0.32,-0.49,1.49,1.35,-0.92,0.03,0.60,0.30,-1.48,-0.79,-0.08
"ex2339",-1.32,-0.34,0.13,1.21,1.00,3.10,5.17,3.36,4.97,3.33,2.69,2.25,1.21,1.74,0.12,0.60,1.44,0.84,0.73,-0.08,1.21,1.46,-0.89,-1.71,0.28,-0.41,0.13,-0.55,0.13,0.37,-1.28,-1.36,-0.09,-0.95,-0.28
"ex2340",-0.01,1.61,2.27,2.25,4.36,2.65,4.80,4.26,4.38,3.59,3.26,2.45,1.57,1.38,0.90,-0.35,0.31,-1.14,0.97,0.97,0.65,-0.19,-0.86,-1.17,-1.06,0.95,0.03,-1.39,2.30,-0.04,0.10,-0.77,0.09,0.20,0.72
"ex2341",0.59,-0.24,0.82,0.13,2.53,2.29,1.57,1.46,1.94,1.38,1.88,2.33,2.36,4.29,3.39,2.99,2.54,1.56,0.09,2.10,-0.41,0.48,-0.60,-0.05,-0.80,-1.22,0.66,1.28,-0.89,1.44,0.11,0.08,1.51,0.80,0.14
"ex2342",0.00,0.10,2.32,1.54,1.26,4.61,3.26,4.88,5.94,2.39,3.25,3.97,1.73,2.57,0.34,-0.38,-0.32,0.63,1.43,0.53,-1.08,0.46,-0.19,-0.44,0.40,-0.12,0.98,1.57,1.88,-0.42,0.40,-0.45,-1.52,-0.31,3.04
"ex2343",1.12,0.03,-0.34,1.08,-1.07,2.38,3.05,4.51,3.91,4.24,5.43,3.00,2.40,2.49,2.14,1.14,1.05,-0.44,0.78,-0.07,-0.24,-1.42,-0.71,-0.59,0.01,-0.44,1.54,0.64,-0.43,0.07,-0.45,0.36,0.18,0.95,-0.19
"ex2344",0.05,-0.95,-0.08,1.61,-0.67,2.60,3.24,2.66,-0.12,0.85,1.18,0.73,1.84,3.78,3.25,3.90,3.16,2.91,0.66,0.18,0.67,0.66,-0.67,0.77,1.57,0.26,-1.34,0.81,1.01,0.31,-1.03,-1.38,-0.92,-1.51,-0.18
"ex2345",0.05,0.40,-0.66,2.06,-0.76,1.91,2.15,0.84,3.22,1.49,4.39,3.62,4.91,4.63,4.22,3.76,2.11,1.89,1.05,-0.90,-2.22,-1.41,0.56,-0.07,0.41,0.14,1.24,-1.33,-0.24,0.72,0.03,0.07,1.22,1.13,-0.17
"ex2346",-0.31,-0.01,1.43,0.91,1.13,1.48,2.34,2.35,0.46,1.49,1.21,1.55,1.99,3.43,0.39,1.28,2.93,1.57,1.12,0.53,0.17,-0.71,0.46,-0.38,0.11,0.94,0.19,-0.01,-0.17,0.67,0.13,0.45,0.24,-0.92,0.30
"ex2347",0.09,-0.80,-0.37,-0.11,-0.53,-0.80,-1.52,-0.74,2.03,1.19,2.35,4.29,4.81,4.14,7.41,5.21,3.52,1.97,2.96,-0.81,1.66,-0.63,0.08,1.15,0.84,-0.90,-0.21,2.42,-0.38,-0.04,0.16,0.06,-1.89,-0.68,-0.70
"ex2348",-0.83,1.60,1.08,2.09,2.22,3.62,5.06,4.45,2.33,3.64,4.75,3.91,1.73,1.48,0.59,0.16,0.81,0.08,-0.44,0.37,1.25,-1.65,1.01,1.22,-0.29,-0.84,0.19,1.02,0.07,-0.37,0.59,0.47,-1.24,0.53,-0.50
"ex2349",0.12,0.09,-0.37,0.36,-0.14,1.36,2.45,3.96,5.48,3.54,7.14,5.95,3.96,4.05,2.60,1.58,-1.57,0.40,-0.06,-0.20,0.62,-0.87,0.30,-0.10,1.12,0.85,-0.68,0.24,0.08,-0.11,-0.78,0.15,0.37,-0.14,0.36
"ex2350",-0.45,0.42,-0.95,-0.51,-0.58,0.97,0.51,1.65,3.69,2.83,2.62,3.87,2.22,5.90,4.94,2.96,1.49,1.93,2.35,2.37,-0.94,0.64,1.40,0.21,0.36,0.46,-0.68,1.66,0.78,0.50,0.63,-0.09,-0.15,-0.13,-0.54
"ex2351",0.86,1.63,0.60,1.07,0.40,2.10,3.74,4.52,4.55,4.04,3.53,2.52,3.85,1.04,1.01,-0.01,-0.14,0.03,-1.36,-1.05,-0.09,0.77,1.06,0.61,-0.01,0.19,1.47,0.14,0.23,0.68,-0.39,0.07,0.70,-0.15,-0.26
"ex2352",-1.07,-0.99,-0.07,-1.19,0.56,2.48,1.39,2.50,3.17,5.54,4.77,4.72,3.07,2.09,2.86,1.73,0.34,1.74,-1.44,1.87,1.26,1.42,1.83,-0.43,0.30,-0.06,-0.02,0.27,0.15,2.14,0.66,0.11,-1.04,-0.18,-0.52
"ex2353",-1.49,0.81,1.54,0.51,2.41,2.59,2.02,-0.44,0.33,2.50,3.24,2.71,4.47,2.27,3.13,2.33,3.19,0.34,1.10,1.57,0.61,0.44,1.70,-1.39,1.21,0.33,0.45,-0.27,-0.39,-1.24,1.08,0.41,0.43,-1.16,-1.01
"ex2354",2.62,0.20,-0.96,0.60,-0.08,1.29,0.51,1.20,2.66,7.34,5.21,6.15,3.15,3.15,1.24,-0.33,-0.71,1.42,1.60,0.60,-0.10,0.32,0.92,-1.08,0.33,-0.09,0.88,0.43,0.97,0.93,1.11,1.77,-0.07,-0.73,1.02
"ex2355",-0.06,0.84,0.75,0.32,-1.10,-1.15,0.86,-0.03,-0.59,2.53,2.45,2.78,2.41,4.71,5.30,5.09,4.67,2.91,1.51,1.55,-0.08,0.31,-0.41,-0.83,0.48,-0.25,-0.65,1.23,0.37,-0.52,0.12,1.34,0.78,0.34,-0.55
"ex2356",-1.72,0.61,3.83,4.16,4.28,6.30,5.94,3.40,4.63,4.89,2.79,1.60,0.03,0.14,2.61,-0.94,-0.29,-0.05,-1.40,-0.58,-1.59,0.46,1.77,-0.09,1.15,0.02,-0.82,-0.22,-1.67,0.07,-1.65,0.45,-0.77,-0.25,-1.10
"ex2357",-0.19,-1.15,1.19,4.10,2.43,4.93,6.26,3.71,5.20,3.65,2.57,1.98,0.55,0.93,0.32,-1.02,-1.19,-1.51,1.71,-0.40,0.99,1.13,-2.00,-0.18,1.04,-1.76,1.15,-0.15,-0.70,0.10,2.19,-0.46,0.07,0.67,0.85
"ex2358",-1.10,-0.04,-0.31,0.95,0.10,-1.11,1.83,0.33,0.23,1.84,1.99,2.26,3.91,6.68,6.13,2.58,4.08,4.41,1.05,0.06,0.08,-1.50,-0.27,0.29,-0.52,1.12,-1.67,1.66,2.54,0.07,1.66,1.32,0.39,0.84,1.44
"ex2359",-0.15,0.25,0.82,2.33,1.18,1.70,2.29,0.71,3.08,1.69,2.12,3.22,1.53,3.85,3.79,3.73,3.08,3.18,1.32,1.28,-1.30,0.04,-0.09,-1.14,0.11,0.72,-1.92,-0.15,0.48,0.91,-0.29,-0.24,-0.81,-0.62,-0.96
"ex2360",0.51,2.25,1.51,2.43,3.29,2.89,4.97,4.12,3.56,3.46,2.58,2.52,0.90,-0.77,3.73,2.01,1.49,0.72,-0.71,0.77,-0.60,-0.42,0.04,-1.23,-0.02,0.19,1.52,0.17,0.51,0.61,0.89,0.11,-0.43,2.48,-0.26
"ex2361",-1.58,1.60,2.23,2.87,2.19,2.48,4.01,3.02,3.69,1.69,2.91,3.17,0.56,1.39,1.42,0.84,1.97,1.68,-0.46,1.35,-0.06,1.19,-0.08,-1.51,2.37,-0.67,-0.26,0.40,-0.89,-0.52,-0.04,0.02,1.20,-0.33,-0.70
"ex2362",0.21,-2.03,-0.44,0.95,0.98,1.16,0.77,2.86,1.65,2.66,2.77,4.45,5.94,5.49,4.77,1.86,2.04,-0.86,0.77,-1.50,-1.41,1.65,2.76,-1.53,0.09,0.80,0.24,-1.28,-0.64,1.29,-0.42,0.01,-1.79,0.33,-1.80
"ex2363",0.49,1.84,0.64,3.10,2.85,4.98,4.88,3.82,4.62,2.54,1.97,0.85,0.03,0.93,-1.98,-1.17,0.91,-1.01,1.87,1.92,-1.54,1.32,-1.75,0.84,-0.37,3.52,0.56,0.27,-0.03,0.53,-0.22,-0.82,-0.68,-2.34,-1.20
"ex2364",2.15,0.53,0.76,-0.70,-0.65,1.67,1.90,-0.12,0.56,1.94,4.38,3.21,1.95,3.54,4.61,2.07,1.60,2.32,1.10,-0.68,-1.77,0.40,0.40,0.14,1.26,-0.87,0.62,-0.42,0.82,-1.72,0.15,-1.30,0.24,0.85,0.02
"ex2365",0.00,1.04,2.52,0.85,3.52,4.34,5.61,4.52,5.02,1.24,2.72,1.25,0.62,-0.05,1.93,0.72,1.76,-0.53,1.45,-1.03,0.41,0.01,-0.59,-1.91,0.33,0.55,0.34,1.47,0.68,0.39,0.21,0.39,-0.02,-0.62,2.30
"ex2366",-0.60,-0.86,1.32,3.73,2.58,2.67,5.60,5.52,3.28,3.90,4.05,0.31,0.76,0.42,0.31,-0.33,0.69,-0.55,0.33,0.33,-0.26,1.18,-0.44,-2.26,-0.53,-0.40,1.47,-0.34,-0.73,0.71,0.59,-0.19,0.78,-0.17,0.06
"ex2367",-0.53,2.03,1.39,3.84,4.53,5.53,5.05,4.56,3.15,1.90,1.51,-1.76,1.09,1.00,0.58,1.37,0.63,-0.12,-0.35,-0.34,0.47,1.67,-0.73,2.27,-0.03,0.39,0.31,0.71,-0.19,-1.42,0.10,2.06,-0.85,0.66,-1.53
"ex2368",1.24,0.61,1.80,0.36,2.59,2.81,1.21,2.24,0.13,2.92,1.65,2.48,2.91,3.91,3.86,3.11,0.69,3.01,1.29,0.77,-0.15,-1.31,0.70,0.17,0.26,-1.38,-0.00,1.88,-0.70,0.37,-1.02,0.64,-0.84,0.36,0.62
"ex2369",-0.29,0.75,-0.15,-0.04,2.96,1.72,1.38,3.62,3.27,1.50,4.60,5.99,4.25,3.97,3.54,2.27,1.94,0.40,-0.12,-0.93,3.32,-0.65,0.81,0.91,-0.89,-1.56,0.92,-1.19,-1.25,0.19,1.08,0.40,-0.85,1.49,-0.27
"ex2370",-0.73,0.38,0.89,-0.71,-0.23,-0.36,2.28,0.74,2.86,3.91,4.02,4.52,3.37,3.32,4.70,1.84,1.28,0.51,0.14,0.29,-0.35,-0.89,-0.15,-0.11,0.42,1.14,-0.32,2.06,-1.34,0.37,-1.09,0.90,-1.10,-1.15,0.20
"ex2371",-0.12,1.58,2.55,1.78,0.85,1.63,5.17,3.50,2.22,2.58,2.56,-0.37,0.43,1.70,2.70,-0.18,1.36,1.95,1.81,0.80,1.05,0.09,0.12,1.50,-0.23,-0.03,1.40,-0.67,-0.13,0.78,-2.24,1.11,-0.11,0.20,0.80
"ex2372",-0.01,0.80,1.50,-0.73,1.01,-0.59,1.84,2.34,1.85,4.72,5.59,3.62,5.35,4.68,4.18,1.27,1.51,0.80,0.25,2.33,-1.03,0.99,0.09,-0.32,-0.76,-0.85,2.02,0.45,0.04,-0.17,0.84,-0.40,-0.14,0.10,-0.89
"ex2373",-0.16,0.29,0.10,0.93,2.15,2.10,1.51,2.43,1.01,2.44,3.17,2.29,1.72,2.84,2.60,1.13,4.14,1.95,1.81,0.59,0.51,-0.31,0.47,-0.24,-0.96,-0.89,-1.77,-1.67,-2.79,0.73,-0.71,1.22,1.57,-1.45,0.40
"ex2374",0.20,-0.96,0.79,2.12,0.43,2.37,1.60,0.26,1.10,2.67,4.54,2.98,2.56,3.48,3.70,2.96,2.48,3.13,1.30,-1.85,-0.11,1.33,0.57,1.08,0.78,1.46,-1.30,-1.13,0.30,0.85,1.86,-0.55,-0.17,1.06,-0.73
"ex2375",-0.22,-0.77,0.34,0.01,1.11,1.32,3.28,4.13,5.51,3.70,5.71,4.24,3.91,2.20,1.05,-0.44,0.46,0.83,0.53,0.66,-1.38,-0.67,0.96,-0.42,0.44,-0.03,0.26,-0.29,-1.19,-0.31,-0.20,-0.09,0.02,0.94,1.32
"ex2376",1.70,0.56,-2.01,1.42,-0.97,0.62,1.89,2.06,4.02,2.76,2.61,4.11,5.48,3.50,4.26,4.19,2.71,0.83,-1.44,-0.26,-0.12,0.81,-1.64,0.44,-0.07,0.52,0.70,0.31,0.53,-2.08,-1.59,-0.62,0.57,0.67,0.92
"ex2377",-0.09,0.39,2.90,0.52,2.50,3.51,3.89,2.40,0.76,2.00,0.61,1.24,1.64,3.89,4.98,2.36,2.56,1.77,0.40,-0.08,0.12,0.96,1.88,-0.73,-0.89,-0.91,-0.80,0.04,0.82,0.38,1.99,-0.89,0.71,0.32,0.89
"ex2378",0.08,2.76,2.48,1.17,4.16,5.74,8.04,7.01,3.74,3.02,2.80,2.03,-1.02,0.73,0.78,-0.06,1.56,0.41,0.92,0.20,0.65,0.87,1.20,-1.02,1.39,-0.57,-1.26,2.07,-0.89,-0.81,1.53,1.45,-1.24,2.00,-0.36
"ex2379",0.12,1.29,2.56,3.23,2.42,4.86,3.54,5.72,2.92,3.52,3.04,3.44,1.80,-0.31,-0.55,-1.27,0.31,1.37,0.82,-0.53,-0.09,-0.21,-0.58,-0.31,1.49,1.11,0.04,-0.15,0.20,-1.06,0.54,1.05,1.53,-1.90,1.20
"ex2380",0.10,2.27,1.61,1.04,-0.47,0.62,-0.04,2.91,1.74,4.22,3.78,4.88,4.12,1.92,5.01,0.21,1.37,1.14,-0.15,-0.28,-0.81,0.19,0.54,0.32,-1.08,1.87,-0.61,1.87,-0.09,0.63,0.90,-0.47,-0.02,0.65,-0.16
"ex2381",-0.30,-0.22,0.93,0.13,0.27,1.30,-0.26,-0.44,-0.97,2.05,3.04,4.48,3.66,5.68,6.75,2.97,3.41,3.49,2.65,2.24,1.58,-0.57,-1.97,-0.81,1.53,-0.37,-1.26,-0.56,-0.19,-0.37,0.48,1.08,0.78,0.62,0.68
"ex2382",-0.26,2.36,3.31,2.96,4.92,3.97,4.72,5.54,3.38,2.75,2.92,0.14,1.39,0.12,0.09,-1.31,-0.21,-1.40,-0.53,0.16,1.24,-0.33,-1.95,0.64,-0.23,1.49,-0.67,0.42,0.75,0.15,-1.22,-0.60,0.49,-1.45,0.49
"ex2383",-0.49,-0.37,3.46,1.43,0.85,1.28,3.98,3.15,0.49,3.22,2.55,2.86,1.56,0.93,2.18,2.45,3.41,-0.34,2.99,-1.02,0.48,-1.47,-0.18,0.51,1.50,-1.79,-0.37,0.45,0.19,-1.45,-1.08,0.18,-0.21,1.62,-1.91
"ex2384",0.25,0.57,1.04,2.20,2.46,2.78,5.16,5.18,4.18,4.42,4.74,1.60,0.35,0.10,0.50,-0.70,0.39,-0.30,0.45,1.15,1.17,0.07,-0.67,1.14,-1.13,0.28,0.80,0.94,-1.45,0.35,-0.47,0.78,-0.40,-0.83,0.45
"ex2385",-0.87,0.71,0.59,2.78,2.65,2.77,2.92,3.31,3.30,1.41,2.52,1.99,1.64,2.97,3.70,2.71,2.73,-0.55,2.05,-0.03,1.12,-1.08,0.13,0.55,-0.80,-0.69,-0.44,-1.32,-0.16,0.67,-0.48,0.48,-0.75,0.73,-0.85
"ex2386",0.20,3.14,2.63,4.16,4.71,4.68,5.05,4.90,4.05,3.71,3.70,3.30,1.71,-1.54,-0.21,0.27,0.55,-0.18,-0.22,-0.57,-1.00,0.82,0.15,-0.03,0.54,-1.36,-0.73,-0.58,1.48,-0.63,1.30,-0.37,0.83,1.55,0.75
"ex2387",-0.65,1.09,-0.63,-0.35,2.03,1.61,2.90,0.78,5.43,4.42,5.45,5.87,1.82,2.87,1.26,0.56,-0.59,-0.75,1.44,0.67,-2.01,1.83,-0.99,-0.24,0.04,0.37,0.38,-0.54,-0.14,1.19,-0.39,0.32,0.58,0.14,-0.04
"ex2388",0.22,-0.89,0.96,0.20,-1.21,0.84,2.87,2.85,1.88,4.23,7.13,4.43,4.86,4.87,2.83,1.81,-0.07,-0.19,1.45,1.25,0.04,0.56,0.76,0.05,-0.19,-0.13,-0.17,-0.58,-0.29,-0.03,-1.03,-0.23,1.62,-1.74,-1.99
"ex2389",2.51,1.63,0.46,0.62,0.97,1.30,4.75,5.09,1.97,4.61,3.91,5.75,2.55,0.98,1.14,0.20,-0.06,1.67,-0.42,2.06,1.28,0.02,0.27,0.21,1.29,0.25,-0.40,0.35,1.72,-0.26,-1.00,1.31,-0.22,-0.48,0.60
"ex2390",0.17,-0.58,0.75,0.51,-2.04,-0.63,-0.62,2.66,3.86,3.83,6.41,5.48,5.40,2.65,0.98,2.35,1.75,-0.29,0.38,-1.64,-0.27,2.55,-0.68,0.64,-0.43,-0.92,0.24,1.27,0.92,-0.12,-1.49,0.39,-1.06,0.23,-1.93
"ex2391",-1.96,-0.75,2.31,2.42,4.59,4.53,3.87,5.41,2.42,2.35,3.12,2.27,0.09,0.41,-0.03,1.68,-0.22,0.68,-1.07,2.35,-0.38,0.19,0.52,-1.38,0.29,0.12,0.74,-0.02,-1.21,-2.39,-0.53,-0.00,0.55,-1.60,-0.67
"ex2392",-1.74,0.35,1.37,1.08,2.49,1.28,3.64,4.95,4.34,5.04,4.82,2.97,0.36,0.33,-1.12,1.82,-0.15,1.18,-1.04,-2.09,0.75,1.30,0.57,-1.10,-1.24,0.05,-0.97,-0.29,1.05,0.79,-0.71,-0.18,-1.58,-0.30,0.88
"ex2393",1.99,-0.84,-0.67,0.41,-0.14,-0.39,0.17,1.09,3.94,2.80,5.88,3.04,3.85,1.19,2.59,1.85,-0.01,0.24,-0.13,0.72,-0.81,-0.77,0.20,-1.06,2.06,-0.29,-0.14,0.23,0.57,0.25,1.06,-0.73,0.68,-0.92,0.68
"ex2394",1.75,-0.17,0.04,3.71,2.36,2.75,4.39,2.64,4.34,2.42,0.68,2.05,1.99,1.29,2.30,1.43,0.80,1.09,-0.65,-0.92,-1.69,0.29,-0.85,-0.54,1.46,1.05,0.57,0.14,-0.87,1.90,0.54,-1.17,0.11,-0.62,0.53
"ex2395",-0.37,0.00,-0.76,0.69,0.91,3.36,4.76,3.78,5.39,3.91,4.17,4.03,3.00,1.39,0.53,-0.07,-1.54,-1.89,1.64,-0.15,-1.05,-1.31,0.27,0.79,-0.65,0.95,1.61,-0.20,-1.25,0.26,-0.52,-1.08,-0.43,1.06,-0.98
"ex2396",0.26,0.78,-1.13,0.00,-0.68,-0.60,-0.07,0.16,-0.20,0.40,2.28,2.96,2.10,3.84,6.53,4.20,3.78,2.00,2.40,-0.39,1.22,0.25,1.05,0.72,-0.37,-1.40,0.82,-0.99,0.06,0.61,1.04,0.05,0.08,0.17,-0.81
"ex2397",-0.19,1.23,0.57,2.51,4.62,3.62,4.70,3.79,2.60,2.40,1.14,3.07,0.24,2.71,0.31,1.22,1.01,1.05,0.81,-1.03,0.16,0.97,-0.78,-0.93,0.06,0.82,0.76,0.23,-1.84,-0.34,-0.29,1.05,0.66,-0.29,0.09
"ex2398",-0.16,-0.28,1.73,0.48,0.85,0.48,-0.41,0.09,0.32,2.38,3.10,4.36,4.56,5.87,6.34,5.57,6.07,0.83,-0.45,1.27,-1.04,-2.63,1.09,-0.16,-0.81,2.12,0.94,-0.64,-0.29,-0.28,-0.64,-0.88,1.24,-0.20,1.24
"ex2399",-1.40,-0.14,-1.14,0.81,-0.69,0.72,1.17,3.40,2.84,2.73,3.19,3.71,5.40,5.27,6.49,4.49,2.45,3.34,1.66,1.23,-0.09,-0.18,0.86,-1.98,0.15,0.77,-0.71,-0.81,0.09,0.09,-2.39,1.82,0.40,0.23,1.30
"ex2400",2.76,0.98,-0.89,-1.17,1.22,1.29,1.79,1.05,-0.48,0.24,2.54,4.42,4.24,4.93,5.58,4.76,4.86,2.63,2.13,1.84,0.52,-2.13,-0.51,1.40,-0.16,0.28,1.85,0.25,-1.76,-0.67,0.27,1.03,-0.47,-0.97,-0.71
"ex2401",0.58,0.95,0.01,-0.90,0.45,2.60,1.03,-0.22,1.19,2.55,2.98,4.46,2.66,3.87,5.48,3.72,3.21,3.05,2.23,1.33,-0.47,0.29,0.25,1.50,0.54,-0.73,-0.47,-0.68,0.92,-0.19,-1.40,-0.21,2.33,-0.93,-0.93
"ex2402",0.74,0.36,-0.57,0.70,-0.23,0.86,0.34,-0.57,0.06,2.44,3.73,3.37,2.10,5.30,5.76,5.85,3.41,1.80,1.28,-1.55,-0.42,-0.70,-1.84,1.33,2.36,0.39,2.85,2.22,-0.41,2.30,0.04,0.67,-0.88,0.58,0.10
"ex2403",-1.15,-0.07,-0.01,1.16,1.45,1.00,3.49,4.58,4.84,3.90,6.21,5.68,2.10,0.54,2.00,-0.18,-0.77,-0.83,-1.33,-0.45,1.76,-0.79,0.11,0.81,0.65,1.42,0.13,1.57,-1.17,-0.26,-0.20,1.08,0.88,-1.20,2.70
"ex2404",-1.62,0.24,0.74,1.00,1.34,2.09,-0.37,3.61,2.99,3.35,2.57,4.84,3.04,2.03,3.62,2.43,2.58,2.03,1.21,1.45,0.35,-1.35,0.11,0.19,0.56,0.87,-0.91,0.42,0.34,2.68,-0.10,-1.75,-0.10,1.68,0.70
"ex2405",-0.44,-0.54,2.37,3.02,4.66,4.94,6.51,7.02,3.50,3.41,2.73,1.70,1.54,1.15,-0.37,-0.16,0.88,-0.46,-1.12,-1.64,-0.17,0.12,-1.01,-1.11,0.77,-0.46,1.32,-1.09,0.22,-0.73,0.27,-1.73,-0.92,-2.17,0.32
"ex2406",0.98,-1.91,1.58,-1.17,-0.64,1.31,0.54,1.04,4.48,3.80,4.95,5.44,3.01,1.52,2.59,0.01,-0.35,0.04,1.15,-0.72,0.98,-1.15,1.04,1.42,-0.89,-0.97,-1.05,0.46,0.23,0.77,0.27,-1.00,0.06,-1.55,-0.20
"ex2407",0.02,1.20,1.92,1.91,3.97,5.39,6.47,3.90,2.97,1.51,2.51,0.59,-1.00,-0.71,0.43,0.70,0.93,-1.11,-0.43,1.10,1.21,0.82,-0.20,0.09,-1.22,2.27,0.37,0.48,-1.00,0.01,1.15,-0.93,-1.76,-0.00,0.88
"ex2408",0.48,-0.79,0.36,2.10,1.78,1.59,1.84,1.20,1.32,2.58,4.32,3.22,4.27,3.59,1.82,2.94,3.18,2.61,1.07,1.48,0.58,-0.08,-0.32,-0.92,0.36,0.21,0.74,-0.60,-1.13,-0.45,0.58,-0.87,-1.32,1.51,-0.06
"ex2409",0.94,0.52,0.64,1.64,1.66,1.65,3.39,3.74,3.94,2.68,2.35,1.79,1.24,2.80,4.21,0.45,0.85,0.34,-0.16,0.92,-0.13,-0.38,0.40,1.91,-1.26,1.38,-0.80,0.86,-0.16,1.68,1.97,-0.47,-1.31,0.20,0.44
"ex2410",0.25,0.80,-0.06,-0.17,-0.27,2.31,1.81,2.74,3.36,4.50,4.72,6.10,5.08,2.22,2.54,3.68,-1.29,0.54,-0.48,0.14,-0.08,-1.00,0.83,-0.99,0.84,-1.65,-1.82,-0.68,-0.65,-0.05,-2.50,-0.66,-1.42,0.13,-0.96
"ex2411",-0.41,0.35,1.71,2.64,2.30,5.55,6.81,7.40,4.84,5.70,1.40,2.19,0.81,-0.48,-0.53,-0.24,-0.31,-1.69,-1.71,0.92,-1.35,-0.72,-0.29,-0.87,-1.49,1.50,-1.24,-0.08,0.13,1.15,-1.56,0.64,0.45,-1.84,0.15
"ex2412",1.31,-1.52,-0.37,1.05,-0.58,0.82,-0.19,0.42,1.17,1.02,2.71,2.39,4.05,3.39,6.08,4.06,5.05,3.28,0.06,0.91,0.16,0.07,1.68,0.39,0.75,-1.46,1.39,-0.42,1.70,-0.46,-1.98,1.13,-0.13,-0.44,1.51
"ex2413",1.10,1.48,-0.11,0.52,-0.07,0.95,2.42,2.76,3.52,3.47,3.72,4.91,4.23,3.20,2.49,1.25,0.35,-0.21,-2.20,-1.00,0.02,-0.14,-0.78,-1.26,-1.13,-1.48,0.68,0.72,-1.57,-0.06,0.12,-0.51,0.30,0.74,1.63
"ex2414",-1.19,-0.17,0.01,0.49,-0.57,-0.02,-0.58,2.16,1.60,2.70,4.10,4.69,4.00,4.36,4.21,1.92,1.77,1.32,2.58,2.08,0.38,0.20,0.52,0.76,1.44,-1.70,-0.64,0.20,-1.56,0.10,0.08,-0.42,-1.13,0.05,-0.67
"ex2415",0.98,-0.09,1.28,1.91,2.28,5.21,5.00,4.38,4.35,3.71,3.38,0.38,-1.11,1.19,0.79,-0.40,-0.86,0.06,0.83,0.45,3.40,-0.45,0.58,-1.06,-1.23,1.47,-0.31,-0.56,0.81,-0.64,-2.63,1.00,-1.08,-0.76,-0.53
"ex2416",0.91,0.65,-0.41,0.68,0.58,0.95,1.77,0.98,1.63,3.35,3.32,2.51,2.47,2.94,5.09,3.49,1.72,3.36,0.68,-0.03,-0.29,-0.36,0.77,-0.31,0.68,0.32,0.38,0.56,-1.16,0.81,-0.33,-1.24,1.05,0.18,0.08
"ex2417",-0.84,1.03,1.62,0.21,1.31,1.41,0.56,2.04,1.36,1.80,3.59,2.69,2.29,3.09,3.08,2.71,3.18,3.81,1.79,1.71,-0.41,1.93,-0.54,0.40,-0.26,-1.50,1.23,0.00,0.66,-0.24,-2.04,0.06,0.58,0.54,1.53
"ex2418",0.10,0.41,-0.44,0.27,-0.15,-0.05,-0.87,0.16,-1.43,1.11,3.03,3.48,4.51,5.75,5.36,5.09,4.30,3.72,1.15,1.13,-0.31,-0.43,0.59,-0.29,0.69,-1.20,-0.60,0.05,-0.50,-1.23,-0.41,-0.96,-1.65,0.04,2.16
"ex2419",-0.56,-0.26,0.34,1.72,3.84,3.70,4.43,3.66,3.32,1.39,2.59,2.53,1.69,-0.22,1.79,0.43,1.51,0.45,-1.86,1.33,0.39,0.19,-1.60,-0.64,0.93,-0.34,0.66,-1.20,1.75,-1.14,-1.40,-0.70,1.73,0.84,1.47
"ex2420",0.32,-1.59,1.09,1.55,0.58,-0.87,-1.63,-0.71,-0.06,1.20,2.27,3.50,6.14,4.88,7.16,5.97,2.73,1.72,2.79,2.02,2.33,0.74,0.51,-0.81,-0.47,0.91,0.96,-0.72,-0.69,-0.67,-1.36,-0.24,0.58,-0.46,0.00
"ex2421",0.47,0.04,1.12,1.05,-1.01,0.08,-0.09,1.02,1.01,0.98,2.75,4.26,4.99,3.49,6.03,5.85,2.84,2.38,2.68,0.00,-0.58,0.85,0.51,-0.74,0.10,-0.23,0.95,-0.09,-0.31,-1.49,-0.15,1.94,-0.08,0.59,1.73
"ex2422",-1.19,0.62,0.76,4.28,2.43,5.34,5.70,4.86,2.91,2.80,1.47,0.97,0.30,-0.77,0.61,-0.17,-0.47,0.00,-0.29,0.01,-0.63,-1.32,-0.29,-1.38,0.19,-0.15,-0.34,1.24,1.35,-1.43,1.63,2.26,-0.52,-0.51,0.06
"ex2423",-1.31,-0.25,0.60,-0.29,2.21,1.64,1.57,2.39,5.15,4.80,3.90,4.77,2.47,1.12,3.07,0.20,-0.37,0.31,1.54,0.83,0.45,-0.86,-0.34,1.12,1.25,1.07,-0.44,1.20,0.64,0.41,-2.51,-0.96,0.64,0.55,-0.86
"ex2424",0.31,-1.68,-1.68,0.57,-0.23,0.66,0.60,0.48,0.86,2.81,3.05,1.52,4.09,4.99,4.76,4.07,2.51,2.89,1.78,1.46,0.74,-0.56,1.18,-0.07,-0.52,-0.16,-0.92,0.56,0.05,1.54,1.06,0.64,0.15,-0.10,1.43
"ex2425",-0.68,0.97,0.37,1.65,-1.27,-0.10,1.03,3.99,4.35,4.77,4.67,4.83,4.10,5.03,0.73,0.45,0.56,-0.30,-0.37,0.35,-0.68,0.04,0.15,1.21,-0.54,0.90,0.30,-1.42,-0.16,0.02,-0.85,-1.19,-2.04,-0.32,-0.93
"ex2426",-0.89,0.68,1.96,-0.27,-1.21,0.30,0.27,1.14,0.44,3.61,4.09,6.18,4.07,4.11,6.15,3.26,0.15,2.92,0.78,1.12,-0.00,-0.69,0.10,-0.20,0.73,-0.21,0.45,-0.05,-0.33,-1.78,-0.85,0.01,-0.14,1.13,1.14
"ex2427",0.65,-0.96,0.77,1.70,2.98,1.37,2.33,2.71,1.61,0.94,2.81,3.85,1.36,3.12,5.27,1.76,3.29,1.86,1.71,1.71,-0.59,-1.09,1.90,0.74,-1.29,-0.75,-1.24,0.00,-0.24,0.70,0.99,-0.46,-0.88,-1.22,0.47
"ex2428",-0.90,2.08,1.80,0.04,0.81,1.13,2.03,1.06,-0.17,3.39,0.85,1.40,3.66,3.89,3.35,3.56,1.72,2.95,0.55,0.11,0.58,-1.00,1.13,1.69,0.33,-0.02,-0.68,1.38,0.66,0.89,0.51,0.11,2.08,-1.47,0.59
"ex2429",1.53,1.41,1.22,1.93,2.75,4.01,7.18,3.92,5.27,3.58,1.85,1.26,-1.65,-0.03,-0.65,1.66,1.05,0.20,0.28,-0.07,0.69,-0.21,-0.30,-0.99,-0.05,-0.75,-1.04,0.61,2.24,-0.04,-1.99,1.20,0.34,-0.16,0.26
"ex2430",-0.92,-1.14,0.54,0.44,1.25,0.34,2.03,0.38,0.98,2.51,3.72,3.78,2.30,4.20,3.56,3.68,3.39,2.58,-0.32,-0.24,1.14,1.24,-0.27,-0.18,0.83,0.43,-0.96,-1.70,0.75,-0.50,-0.58,1.22,-1.11,-0.21,1.15
"ex2431",0.90,1.62,-0.32,0.24,2.08,2.32,3.45,3.53,2.71,2.95,2.82,2.26,1.66,4.23,3.18,4.03,2.83,1.70,0.31,0.35,-0.59,-1.55,0.08,-0.74,-0.50,0.07,1.22,0.98,0.91,-1.67,2.23,1.12,-1.21,-0.27,0.93
"ex2432",0.85,-0.69,2.40,-0.19,-0.13,0.18,-0.49,-0.47,0.79,3.34,3.05,2.55,3.81,3.65,2.92,4.39,3.60,0.76,-0.13,-0.14,-0.19,-0.38,0.09,1.41,-0.48,-0.82,-0.16,0.21,-0.49,0.13,1.89,0.61,0.48,-0.07,0.42
"ex2433",1.14,-0.94,0.07,-1.91,-0.05,1.81,-1.21,-1.76,0.52,1.75,1.35,2.13,4.36,5.84,5.65,4.49,2.66,2.02,0.47,-0.38,1.37,0.05,2.60,-1.60,-2.07,0.83,-1.01,0.76,0.51,-0.05,2.40,0.47,0.39,1.31,-1.34
"ex2434",0.32,-0.76,-0.32,1.68,2.47,3.14,2.94,2.63,1.25,1.55,1.44,2.46,2.55,1.89,2.69,2.69,3.04,0.20,-0.24,1.72,0.73,1.10,-0.03,0.25,-0.72,-2.01,0.46,-0.50,0.89,1.44,0.64,0.79,-1.23,-0.33,-0.77
"ex2435",2.18,0.00,0.95,-1.16,0.39,-0.40,2.61,2.89,1.78,3.25,5.30,5.74,4.33,3.40,2.77,1.40,2.44,0.36,0.07,1.04,-1.39,-0.41,-1.60,2.29,-0.03,-1.98,-0.43,0.64,-0.14,1.11,-0.86,-0.15,-0.25,-1.00,1.25
"ex2436",-1.69,0.44,-0.52,1.23,-1.43,-0.87,1.31,-0.64,0.31,0.02,1.31,3.00,2.75,4.33,4.41,3.13,4.66,2.09,1.59,1.70,-1.50,0.12,-1.34,-1.30,-0.05,-1.86,2.44,-0.19,-0.82,0.12,-0.28,0.46,-0.11,-0.85,-0.36
"ex2437",-0.58,0.70,-0.38,-1.19,-2.02,1.59,2.99,3.04,0.98,3.89,7.08,3.74,2.76,1.77,2.18,1.19,1.77,0.41,2.10,0.87,-0.18,0.17,0.19,-1.73,1.40,1.29,-0.76,0.11,0.90,0.52,0.06,-0.33,0.04,2.17,-0.42
"ex2438",-1.06,0.27,1.18,0.77,1.82,3.49,2.44,2.71,0.96,1.42,0.46,2.70,1.85,2.97,1.51,2.93,2.16,1.02,0.27,1.25,-1.00,0.52,0.55,1.25,0.64,0.11,1.09,1.79,0.73,0.37,-0.13,-0.50,-0.79,-0.33,-0.14
"ex2439",-1.98,1.47,0.91,-0.91,-0.93,1.15,3.47,1.90,6.35,5.24,4.43,4.88,5.07,3.89,3.88,-0.61,-0.96,0.58,0.12,-0.83,0.50,-1.39,1.21,-0.67,0.52,-0.84,1.57,-2.23,-0.42,-0.60,0.14,-1.04,-1.74,-0.75,-2.25
"ex2440",0.21,2.76,3.22,1.50,2.11,2.68,4.91,3.01,2.94,2.51,1.89,1.93,-0.05,-0.48,3.01,-0.31,1.81,1.74,1.72,0.25,-0.21,-1.02,-1.29,0.48,-0.45,0.33,-3.11,-1.16,-2.75,1.39,-2.32,-0.73,-0.88,2.80,-0.63
"ex2441",-0.05,1.55,2.95,1.81,0.58,3.05,5.52,4.39,5.00,4.56,3.78,4.50,1.94,1.09,1.55,1.06,0.22,-0.64,-0.47,1.07,0.23,-2.15,0.38,-1.55,-0.57,-1.09,0.75,-0.43,-0.82,-1.59,-0.30,-0.53,0.72,-1.22,1.18
"ex2442",-0.12,-0.15,2.35,3.44,2.13,4.96,6.20,4.66,2.35,4.71,3.18,0.62,0.93,0.94,0.09,-0.61,1.99,0.46,0.52,0.51,0.30,0.43,-0.55,0.67,-1.51,0.00,-0.71,0.45,0.03,1.52,0.35,-1.79,-0.30,-0.60,1.40
"ex2443",0.82,-0.31,1.92,0.65,1.12,0.85,-0.07,2.19,1.39,0.12,1.44,5.48,3.31,5.83,4.24,2.69,3.68,4.53,1.73,3.13,0.51,-1.29,0.60,0.50,-1.37,0.71,-1.56,-0.14,-1.05,-1.64,0.01,0.15,-1.19,0.35,-1.08
"ex2444",-0.94,0.21,0.86,-0.70,0.64,3.60,2.32,1.65,-0.46,0.67,1.78,3.97,2.12,5.37,2.73,2.89,3.03,0.50,1.67,0.94,0.99,-0.56,-0.10,-0.40,-1.01,1.19,-0.27,-0.46,1.15,-0.02,-0.76,0.55,1.08,0.99,0.47
"ex2445",1.14,0.71,0.51,2.33,4.62,5.19,5.16,4.91,3.59,2.24,1.83,-0.83,-1.20,0.83,2.09,0.68,0.95,1.41,-2.20,0.17,-0.54,-1.71,-1.46,0.05,-0.47,-0.48,-1.47,-0.24,-0.51,-0.88,0.46,-0.62,-1.96,1.49,-1.24
"ex2446",-0.37,0.38,1.15,1.16,0.19,3.13,3.24,6.67,4.42,5.31,4.90,2.78,2.17,0.65,1.94,1.52,0.22,0.34,0.27,-0.16,-0.50,0.65,0.88,-1.51,-1.57,-0.28,-1.02,-1.44,0.04,2.59,1.13,-2.06,0.35,-0.98,1.12
"ex2447",-0.67,-0.56,-0.01,-0.77,2.83,2.67,4.23,5.24,3.47,3.52,4.29,3.68,-0.15,2.96,2.20,-0.59,-1.13,-0.37,-0.20,-0.41,-0.57,1.44,0.26,-0.12,1.27,0.32,1.16,0.76,-1.23,0.50,0.90,0.58,0.85,0.38,-1.36
"ex2448",0.46,-0.29,-0.72,-1.63,0.10,1.55,1.36,1.48,3.74,1.11,3.34,3.69,4.57,3.57,4.34,2.53,1.45,3.48,2.53,0.72,-0.53,0.81,-0.18,-0.77,-0.35,1.27,1.60,0.35,0.22,0.94,0.73,1.23,0.11,1.36,0.65
"ex2449",1.87,-0.00,1.71,0.48,1.66,-0.20,0.28,2.64,-1.39,2.58,2.31,3.36,5.81,2.60,7.47,2.58,3.88,2.05,2.65,2.39,-1.97,0.11,-1.55,-0.53,-0.50,-0.08,-0.75,2.38,-1.02,-0.12,1.06,0.14,-2.10,-0.48,-0.69
"ex2450",0.70,1.77,0.20,-1.30,2.15,0.76,0.63,0.38,1.94,3.05,5.43,3.31,4.04,3.35,2.98,3.80,4.56,1.58,0.58,2.14,2.29,0.32,-0.90,-0.80,0.42,1.41,0.87,0.72,1.00,0.62,-1.53,0.76,-1.26,-0.43,-0.37
"ex2451",-0.13,-1.23,0.26,2.33,2.09,3.35,3.40,1.52,1.27,2.83,2.65,3.31,0.79,3.06,2.55,2.88,-0.26,1.14,0.91,0.34,-0.72,0.91,1.29,-1.05,-0.06,1.57,-0.19,0.61,-1.52,-0.22,0.30,-1.11,-0.33,0.63,-0.00
"ex2452",-1.74,-0.27,1.87,0.06,0.15,1.25,3.72,2.57,4.91,5.16,5.56,5.91,4.71,2.43,2.59,0.54,1.14,-0.19,0.56,0.28,-0.39,-0.75,0.23,1.34,-0.17,2.38,-0.60,0.39,0.00,-0.89,0.62,-1.86,-0.23,0.32,-0.14
"ex2453",-0.35,-0.73,0.16,0.80,-0.07,-0.45,-0.09,0.22,3.16,1.95,3.99,3.99,3.84,4.86,2.57,2.21,1.29,2.04,0.33,0.07,1.07,-1.10,-0.98,0.65,0.38,1.03,-0.84,-0.53,-0.29,1.44,0.56,1.31,0.15,-0.39,-0.33
"ex2454",0.40,-0.32,0.91,3.34,2.99,3.31,3.40,1.31,0.31,2.36,2.03,1.50,-0.14,3.11,1.68,0.21,2.07,2.66,0.71,2.02,-2.37,0.64,0.47,-1.95,1.33,-1.96,-0.70,-0.50,-1.06,0.76,-0.08,-0.54,2.56,-0.51,-0.55
"ex2455",0.07,1.74,1.65,1.49,5.01,4.41,3.92,1.96,2.74,2.90,3.68,0.55,2.52,0.52,1.45,1.86,0.51,2.32,1.02,0.15,1.46,0.67,-0.40,1.06,-0.66,-1.51,0.21,2.42,-0.15,-1.05,-0.31,0.79,-0.92,0.26,1.14
"ex2456",-0.51,-1.38,0.13,1.20,-0.33,0.58,0.61,1.45,0.31,3.69,5.67,3.08,5.67,5.18,3.22,1.09,1.36,1.69,2.00,-1.01,-1.09,1.11,1.19,-0.03,1.65,0.54,1.02,1.44,0.17,0.16,0.10,1.04,0.57,0.25,0.28
"ex2457",0.67,-0.96,1.69,-0.57,0.27,2.08,-1.33,0.72,2.80,0.20,1.07,2.88,2.67,3.92,5.02,3.10,2.98,2.71,2.57,1.91,-0.09,-1.06,-0.58,0.43,0.88,1.42,0.79,-0.02,-0.76,-0.26,-0.28,0.08,0.16,-0.43,-0.28
"ex2458",-1.10,-1.97,0.83,-0.02,0.71,0.42,3.35,2.07,2.80,3.34,4.44,3.22,3.57,5.27,4.81,4.82,1.98,1.63,-0.43,-0.22,-0.48,-0.77,1.30,0.90,1.46,1.04,-0.41,-0.67,0.45,-0.06,0.48,-1.94,0.30,0.87,-0.20
"ex2459",0.60,0.15,-0.26,0.18,0.08,2.20,-0.32,0.55,-0.08,2.02,3.05,4.51,2.54,4.31,6.52,6.21,5.19,4.84,0.38,1.27,-0.45,-0.22,-2.60,-1.13,0.71,0.19,-1.47,-0.78,-0.64,0.12,1.31,-1.16,0.49,-1.02,0.11
"ex2460",0.28,0.35,0.79,0.38,-1.28,-0.86,0.48,0.72,-0.22,2.42,1.97,4.14,4.07,4.95,5.38,5.33,3.15,1.36,0.35,-0.06,-0.24,0.56,0.22,-0.01,0.23,0.83,1.82,1.97,-0.43,0.42,1.84,0.10,0.91,0.48,1.39
"ex2461",1.34,1.41,1.47,3.47,2.44,3.50,2.61,3.97,3.54,2.85,3.75,4.26,0.65,1.46,0.58,0.74,2.08,0.19,0.87,0.35,-1.23,0.32,0.38,-0.37,-0.33,-0.30,0.33,0.56,-0.02,-0.29,-0.35,-1.17,-1.90,0.85,-1.47
"ex2462",-0.30,1.14,1.61,1.65,2.95,2.24,4.98,5.36,-0.75,2.07,2.21,1.23,0.46,1.36,0.84,1.84,-0.03,1.71,0.80,0.35,-0.14,1.42,0.85,-0.36,1.58,0.73,0.95,-1.31,-0.61,1.26,0.41,1.28,-0.31,0.84,-0.40
"ex2463",-0.31,0.92,0.56,1.78,4.04,4.93,4.43,4.09,3.92,4.18,-0.01,1.02,1.48,1.03,2.50,1.47,1.23,0.93,-1.17,1.37,2.96,-0.78,-0.56,2.11,0.28,-0.61,-0.12,-1.94,-1.06,2.30,-0.38,-1.54,-0.13,0.08,0.52
"ex2464",-0.91,-0.81,-0.90,0.13,-0.06,1.20,0.39,1.15,1.94,0.11,1.70,3.51,5.38,4.32,4.95,5.66,5.19,2.32,3.01,-0.12,-0.02,-0.06,-0.46,1.62,-1.17,-0.69,0.78,-0.54,1.53,1.38,-1.16,0.71,-0.95,1.55,1.18
"ex2465",0.59,-0.18,1.36,1.46,-0.57,0.72,4.19,2.84,3.17,1.74,1.09,3.34,3.19,3.40,3.11,3.18,4.13,1.75,0.80,1.29,0.40,-0.38,1.03,0.15,-2.82,-1.13,-0.80,-1.46,0.26,-1.20,-0.08,0.92,-1.60,-0.03,-2.20
"ex2466",0.45,0.27,-1.27,2.24,2.62,3.99,4.85,4.97,4.34,2.00,1.86,2.24,1.65,0.32,2.93,1.06,1.44,0.97,0.94,0.50,0.07,-0.20,0.46,1.28,-0.61,-0.36,-0.57,-0.48,-0.31,0.94,0.46,-0.50,0.73,-0.12,0.00
"ex2467",1.34,0.36,2.64,2.73,2.32,4.34,5.87,4.76,3.53,3.26,3.79,2.39,1.64,-0.89,2.42,0.37,-0.35,-0.22,-0.46,-0.32,-1.31,-0.54,1.69,1.32,0.06,-0.97,-1.11,-2.16,-0.53,0.15,-0.79,2.25,-1.28,-1.39,-0.37
"ex2468",-0.39,0.27,0.86,2.84,2.35,5.88,5.62,4.41,5.51,4.13,1.35,-0.10,2.56,0.49,-1.63,0.90,0.86,0.00,0.52,-0.79,-0.46,0.24,-1.60,-0.47,-0.23,-0.69,-0.55,-0.41,-1.20,-0.09,-0.08,0.35,-0.50,0.38,1.10
"ex2469",-0.98,1.17,1.48,2.53,3.56,5.14,4.37,2.16,2.54,2.40,2.16,1.63,1.77,0.92,0.92,-0.26,-0.48,-1.34,-0.71,-0.85,0.13,0.86,0.90,0.01,-0.10,-0.54,1.11,0.37,0.16,0.10,1.11,-0.68,0.97,-0.36,0.43
"ex2470",-0.30,0.48,0.15,1.16,-0.78,0.69,0.53,0.94,2.89,2.90,2.56,4.55,3.80,3.46,5.23,4.44,2.80,1.79,0.72,2.58,-0.53,-2.32,-0.99,-1.04,-0.48,-0.17,-1.19,-0.37,-2.00,0.74,-0.34,-1.21,-0.31,-1.01,-0.94
"ex2471",0.99,0.18,-0.47,0.55,-0.18,-0.67,0.01,-0.13,1.17,2.03,4.16,3.79,4.85,4.46,2.92,3.10,2.59,3.26,0.44,-0.50,-0.34,-0.02,-1.28,1.06,-0.51,-0.00,-0.34,0.66,0.07,-1.47,-0.42,0.69,-0.29,-0.31,-0.29
"ex2472",0.06,0.13,2.04,0.64,-0.22,1.50,4.57,3.02,3.12,4.60,5.27,2.17,1.66,2.08,-0.30,0.74,2.44,-0.47,0.41,-0.10,-0.20,-0.77,-1.29,0.14,-0.24,-0.80,-0.45,0.11,-0.86,-0.95,0.87,0.72,1.15,-0.49,-1.49
"ex2473",-0.54,-0.83,-2.26,1.13,1.34,0.73,3.68,2.03,5.14,6.00,6.15,4.07,4.06,1.91,2.12,0.42,-0.39,1.66,-0.08,-1.52,1.04,-0.84,0.90,1.15,0.26,-0.77,0.73,-0.06,2.01,-0.44,-1.45,-0.01,0.38,0.24,-0.48
"ex2474",1.85,-0.19,-0.41,-0.07,0.40,0.62,1.50,1.33,1.34,2.13,3.93,3.10,3.84,4.13,5.42,2.28,2.09,-0.47,2.13,0.26,-1.49,0.53,-0.71,-0.54,0.23,-2.22,0.23,0.34,0.96,1.64,0.53,0.37,1.24,0.06,-0.03
"ex2475",0.76,-0.25,0.38,2.26,0.34,2.98,2.37,2.37,2.51,3.90,4.83,4.12,2.97,1.77,1.63,0.33,-1.58,-1.51,-2.57,-0.96,-0.99,-0.31,-0.95,-0.67,1.07,0.59,-0.67,0.65,-0.72,-1.67,1.33,0.48,-1.09,-0.79,0.01
"ex2476",-0.76,0.09,0.05,0.89,-1.07,-0.07,0.81,1.37,0.72,0.47,1.18,2.17,4.47,3.78,5.17,4.99,3.91,1.86,2.87,-0.90,1.31,-0.75,-1.26,-1.40,-0.97,0.77,0.18,-0.53,-1.29,0.31,-0.56,-0.80,0.24,0.38,0.11
"ex2477",-0.58,-0.31,0.58,-0.86,0.87,0.54,3.53,3.02,4.05,6.20,6.95,5.63,4.13,4.71,2.19,0.01,-0.06,0.25,0.58,-0.33,-0.90,-0.10,-0.09,0.97,-0.31,-0.08,1.48,0.20,-1.78,1.12,1.63,-1.16,1.17,0.23,-1.26
"ex2478",2.44,1.07,1.48,3.27,3.29,3.42,5.11,5.26,4.01,2.91,0.60,1.38,-1.32,-0.25,-0.38,0.56,-0.35,-0.01,-0.60,-0.08,0.70,-0.74,-0.72,2.10,0.48,-0.41,0.86,0.06,-2.03,-0.50,-2.49,0.53,-1.35,-0.31,-0.22
"ex2479",-0.17,0.23,0.24,-0.48,-0.22,1.03,-1.61,1.33,1.60,2.71,2.04,3.25,1.92,5.20,5.69,4.28,4.12,4.20,2.54,0.84,-0.23,-0.72,1.66,2.46,-0.92,0.02,0.59,0.03,-0.23,0.64,-0.12,0.18,-0.59,0.23,-0.63
"ex2480",-1.65,0.78,1.70,1.17,0.86,0.00,1.67,5.40,2.90,4.27,4.58,5.51,1.42,4.67,1.19,0.15,-1.81,0.63,-0.71,-1.74,-0.03,-0.84,-1.46,0.76,0.96,0.84,0.14,1.98,-0.41,-1.20,-0.27,0.03,-0.54,0.25,-0.89
"ex2481",-0.33,-0.22,1.82,2.42,3.86,4.51,5.59,5.37,1.36,2.86,1.37,2.24,0.09,-0.33,-1.08,0.45,0.65,-0.10,-0.48,1.63,0.82,-0.74,0.59,-2.38,0.96,0.94,-0.78,1.55,0.08,-0.62,0.50,-1.04,2.76,1.87,-2.92
"ex2482",-1.24,0.02,1.09,2.65,2.21,3.55,2.99,3.13,3.22,4.57,3.05,2.25,0.76,1.26,0.41,1.95,-0.22,0.10,-0.37,0.64,1.12,-1.72,0.92,-0.43,-0.54,1.19,0.55,-0.30,-0.24,0.01,1.53,0.14,0.98,0.75,0.72
"ex2483",0.27,2.09,1.49,1.10,4.47,5.47,6.54,4.25,3.71,3.23,1.54,1.01,-0.80,-1.61,0.59,-0.33,-1.10,0.68,-0.50,1.44,0.37,-1.45,0.19,-0.15,-0.37,0.66,0.16,0.04,0.34,-1.23,1.00,0.46,0.95,0.65,-1.48
"ex2484",0.53,-0.25,1.54,-1.00,0.82,-0.28,-0.76,2.29,2.35,0.08,2.73,3.05,3.82,4.51,5.21,5.05,3.69,3.14,1.99,1.05,-0.08,-0.11,-0.41,2.62,0.36,-0.41,0.37,1.32,-1.85,0.45,1.78,0.42,1.25,-0.48,0.60
"ex2485",1.37,0.39,0.86,1.84,1.47,3.47,2.66,3.62,3.58,3.60,4.08,2.11,0.38,1.70,0.90,0.87,-0.23,-0.42,0.11,0.88,0.01,1.16,1.23,-0.01,-1.31,-0.56,-0.43,0.02,1.01,-0.40,1.01,-1.44,0.17,0.16,0.97
"ex2486",-1.57,-1.43,1.31,0.91,3.91,5.71,5.33,4.61,2.57,1.92,2.55,0.68,0.28,1.64,1.30,-0.82,-1.88,2.52,0.79,0.72,0.02,-0.50,-2.34,1.55,-0.84,-0.49,-1.31,0.06,-0.28,1.42,0.00,1.56,-1.29,1.91,-0.83
"ex2487",-0.86,1.03,2.40,0.38,1.47,2.51,3.52,3.69,1.91,5.36,4.63,3.04,3.85,0.89,2.22,-0.03,0.39,-1.10,0.03,0.01,2.61,0.28,0.03,-0.20,0.19,0.12,-0.25,-0.88,-1.34,1.01,-0.54,0.60,1.28,-1.23,-0.99
"ex2488",1.93,2.05,-0.60,0.90,2.11,3.90,1.65,1.97,1.01,0.88,2.74,3.93,3.84,3.00,3.59,3.74,1.78,2.57,0.77,0.74,0.67,-2.15,0.25,0.16,1.46,0.52,-1.67,-0.26,1.14,-1.80,-0.95,-1.06,-0.25,-0.91,0.67
"ex2489",-0.38,-0.16,1.28,0.09,1.21,0.33,-0.19,1.74,-0.14,0.63,2.77,4.08,4.29,6.12,3.45,6.37,3.79,3.42,2.69,2.00,0.62,-0.05,0.29,1.07,-0.25,-1.43,0.94,-0.82,1.66,0.38,-0.53,1.08,-0.66,-0.17,-0.62
"ex2490",0.48,0.09,0.57,1.38,0.70,3.10,4.12,3.66,5.04,3.89,2.71,3.99,4.91,3.12,2.98,-0.82,0.44,1.44,-1.36,-1.56,-0.34,1.36,-1.01,1.06,-0.57,0.09,0.24,-0.70,1.94,0.40,-1.66,-1.52,1.54,-0.10,-0.75
"ex2491",-0.92,-1.36,0.56,-0.74,1.37,0.59,1.47,3.22,3.98,5.18,5.47,3.32,3.33,1.27,1.92,-0.47,-0.66,0.82,1.54,-1.47,-0.93,-0.55,0.21,-0.72,-1.21,-0.69,0.55,1.60,0.13,-0.40,-0.33,1.40,0.53,-0.36,0.32
"ex2492",0.67,-0.48,1.97,0.97,2.58,2.68,1.86,2.32,4.17,6.45,5.10,3.52,3.15,3.02,2.29,2.16,1.21,-0.44,-2.11,-1.61,0.92,0.33,1.15,0.74,-1.19,-0.32,0.94,0.57,-0.99,0.41,0.11,1.23,1.41,0.78,0.45
"ex2493",-0.77,0.25,0.33,-0.03,1.20,0.95,-0.15,-0.37,0.63,-0.77,2.82,0.62,2.44,6.75,3.53,4.75,4.04,4.29,0.23,2.72,0.01,1.00,1.21,-1.12,-1.45,0.33,-1.35,1.42,-0.19,-0.15,-0.56,1.55,0.88,1.03,0.89
"ex2494",1.41,0.15,0.74,2.79,2.13,3.88,3.36,4.39,2.41,2.77,2.29,4.57,1.25,1.82,0.45,2.30,2.47,1.30,0.97,-0.91,0.63,-0.09,1.82,0.27,0.05,0.42,0.49,0.79,0.68,0.07,-0.61,0.25,0.01,1.58,-0.91
"ex2495",0.38,1.57,-0.03,2.12,2.98,4.26,3.27,2.54,2.97,1.97,0.56,1.25,0.61,-0.47,1.40,1.67,0.08,1.40,-1.23,0.24,-0.00,-0.59,1.65,0.40,-0.42,-0.30,0.84,-1.04,-0.29,0.63,1.96,1.43,0.08,-0.31,-0.26
"ex2496",-2.23,-0.66,1.58,2.94,3.43,3.13,5.72,2.08,0.41,1.73,3.87,1.92,3.56,1.25,1.77,1.02,0.00,1.91,2.57,-1.23,0.74,0.72,0.10,-0.31,0.60,-1.27,1.16,-1.25,0.80,0.59,1.54,-0.49,0.40,1.54,0.73
"ex2497",-1.06,1.00,3.44,2.37,5.08,2.67,4.30,3.66,5.59,1.79,3.76,1.52,-0.07,0.92,0.03,0.11,-0.02,-0.17,-1.04,1.58,-0.20,-0.04,-1.77,0.91,0.08,0.26,-0.37,0.04,-0.20,0.53,-0.30,-0.79,-1.42,-0.51,0.91
"ex2498",0.81,1.06,-2.31,0.97,0.20,2.86,1.81,3.32,4.50,4.65,4.32,4.85,2.47,3.33,4.01,1.51,-0.62,0.16,0.20,-0.36,-0.01,-0.55,-0.05,-0.88,1.87,-1.78,0.52,-0.29,1.34,-1.50,-0.82,0.49,-1.73,-0.41,-0.66
"ex2499",0.75,-0.62,-0.41,0.18,-0.70,1.71,0.48,2.28,1.85,1.64,7.11,5.31,4.20,3.31,2.73,2.43,1.03,-1.97,-0.91,0.30,1.14,-0.13,-1.18,1.38,0.57,0.60,0.94,-1.04,0.13,1.06,-0.37,1.14,0.79,-0.64,-0.67
"ex2500",0.98,0.98,-0.20,-0.66,1.31,0.74,-0.84,2.73,0.56,1.37,4.33,4.03,3.50,5.42,5.54,4.60,2.49,2.58,0.71,0.60,-0.60,0.26,-0.49,0.29,-0.34,0.94,1.61,0.76,-0.72,-1.19,0.18,-0.56,1.25,0.46,-1.06
"ex2501",1.04,-0.60,-0.67,0.51,0.80,3.35,2.18,2.49,3.74,5.41,5.01,4.42,3.13,2.29,0.91,1.89,0.68,2.81,0.76,0.25,0.49,0.37,0.67,1.24,-0.58,1.15,0.55,0.88,0.54,-1.11,0.02,-1.62,-2.76,0.03,-0.03
"ex2502",-0.20,-0.87,0.49,-0.49,-0.62,-1.31,-0.58,1.68,2.18,2.55,3.32,3.20,3.28,3.66,5.83,2.80,2.79,1.88,-0.68,-0.08,-1.15,-0.18,-1.37,-1.51,0.82,-0.80,0.79,-0.72,-0.74,0.08,-0.72,1.63,1.24,0.83,-0.04
"ex2503",0.94,1.39,2.36,-0.62,-0.39,-0.90,0.41,0.21,-1.41,0.88,1.99,3.05,4.45,5.70,6.49,3.39,5.21,1.62,1.11,-0.86,0.82,-0.26,1.54,0.59,0.86,-0.64,0.83,-0.66,0.27,-0.63,-1.27,-0.33,1.67,-0.42,0.86
"ex2504",-0.29,1.79,1.17,2.06,1.94,5.36,5.67,3.48,4.21,3.75,1.78,-0.22,1.90,0.76,0.98,0.85,1.17,1.96,1.50,-0.65,0.28,-1.68,-0.68,-0.93,0.68,0.55,0.31,1.33,0.21,-0.11,2.28,-0.98,-1.93,-0.67,0.70
"ex2505",-1.02,1.15,0.95,2.41,3.04,5.00,4.97,3.36,4.83,4.20,1.72,-0.09,1.92,1.12,-0.17,0.74,0.23,0.74,0.23,0.64,-1.28,-0.59,-1.79,0.80,1.52,0.10,-1.47,0.27,0.33,-1.03,1.43,-0.54,0.30,-0.25,1.06
"ex2506",-2.06,2.41,-0.71,1.30,-2.14,1.84,-0.19,1.84,3.13,3.54,5.63,1.72,5.91,2.91,3.00,3.03,2.06,0.77,1.82,-0.74,0.51,0.38,0.04,-0.96,-0.68,1.76,1.83,-0.01,-1.37,1.26,-1.40,-0.11,-0.03,0.44,0.66
"ex2507",-0.96,-0.00,0.31,0.50,-0.64,1.34,2.43,4.11,3.81,2.67,3.95,4.17,3.14,1.82,2.06,1.63,0.62,0.54,-0.08,0.65,-0.36,-0.12,0.25,-0.67,-0.64,-0.87,0.14,0.65,0.51,-0.71,-1.03,-0.01,0.29,-1.08,0.06
"ex2508",1.44,0.47,-1.94,0.04,0.80,0.82,1.56,4.21,3.03,5.21,5.78,3.90,4.30,1.09,2.12,2.28,1.79,0.45,0.69,-0.85,0.36,0.58,0.70,-0.73,0.46,-1.11,-0.44,0.37,0.01,-1.41,-1.33,0.68,0.08,-1.12,-0.23
"ex2509",1.79,-1.56,-1.31,-0.54,-1.88,-0.02,0.92,0.62,1.13,1.54,2.78,2.97,2.27,3.95,3.57,5.10,3.00,2.59,2.12,4.62,-1.64,-1.49,-0.61,-0.20,-0.88,1.32,-0.81,0.43,-1.11,1.25,-0.71,-0.69,-1.60,-1.16,0.88
"ex2510",1.28,1.77,0.30,0.72,1.94,1.83,1.47,0.48,2.59,1.91,3.29,1.68,3.08,3.94,6.04,2.25,2.78,1.55,2.24,0.46,1.10,-0.19,1.05,1.29,0.47,-0.59,-1.34,-0.52,-0.13,1.04,0.89,0.71,-0.37,0.10,0.70
"ex2511",-0.65,0.78,-0.58,-0.36,-0.23,-1.88,-1.01,0.46,0.12,0.30,3.25,3.16,1.10,4.72,5.45,3.78,3.61,2.83,2.03,0.58,-0.66,0.35,0.37,-1.07,0.93,1.58,0.81,1.11,0.15,0.77,0.78,0.78,-0.14,-0.17,0.55
"ex2512",0.87,0.30,1.48,2.86,2.95,5.55,5.57,5.87,4.67,3.52,1.65,0.84,1.08,0.44,-1.68,-1.32,0.91,0.48,-0.79,-1.07,0.94,1.78,0.21,-0.20,-1.79,0.54,-0.37,-1.25,-0.65,-1.85,-1.19,-0.41,2.11,-2.59,0.63
"ex2513",-0.58,-1.24,0.17,-1.70,0.75,1.00,1.20,2.53,1.80,1.07,2.53,4.29,2.15,5.56,2.90,3.08,1.19,1.37,1.66,-0.32,0.06,-0.24,-1.01,-0.98,0.97,0.03,0.63,0.58,0.70,-0.77,-0.24,0.48,0.08,-1.72,-1.42
"ex2514",-0.10,2.52,2.01,0.16,2.51,3.34,5.69,4.45,4.27,2.60,4.13,1.85,2.10,0.53,-0.50,1.86,1.12,0.31,-0.25,-0.37,1.25,1.74,0.02,-1.11,0.07,-0.33,1.05,0.68,1.15,0.86,1.00,1.18,-1.18,-0.82,-1.38
"ex2515",0.37,-1.24,0.76,1.59,2.12,5.48,2.79,3.48,3.11,5.33,3.10,3.79,2.39,0.48,-0.06,0.17,1.27,0.56,-0.61,0.32,0.70,0.57,1.63,0.03,-0.43,-1.02,-1.83,1.00,0.10,0.24,0.30,-0.68,-0.81,-0.88,0.04
"ex2516",-0.04,0.50,1.01,1.27,2.61,2.02,4.16,4.64,5.05,4.32,3.41,5.19,3.19,2.31,0.08,1.51,0.25,1.70,-1.47,1.97,-0.76,0.97,0.92,1.00,0.92,-0.69,0.87,-0.32,0.55,-1.36,0.39,0.46,-1.67,0.76,-0.75
"ex2517",-0.81,0.81,0.94,2.59,2.69,2.88,2.98,4.93,5.88,2.62,3.84,1.46,1.08,-1.59,1.98,1.07,0.84,0.78,0.44,2.20,-1.33,-0.25,0.67,1.10,0.70,-1.26,-1.26,-0.07,0.35,0.53,0.56,1.06,-0.34,0.67,-0.73
"ex2518",-0.84,-0.58,0.98,0.35,0.64,-1.58,1.40,0.03,2.19,3.90,4.53,3.98,4.41,3.70,2.28,1.00,-0.35,-1.11,-0.59,-0.23,0.35,-0.94,-0.68,-0.84,-0.44,0.46,0.84,1.36,0.07,1.25,1.43,-0.51,-0.02,0.47,-1.11
"ex2519",1.90,0.44,-1.62,-0.72,1.48,0.01,1.38,-0.17,-0.37,1.99,1.91,4.90,3.68,3.87,6.34,4.42,3.68,2.34,-0.40,-0.21,0.67,-1.01,0.64,1.52,0.61,0.48,0.42,1.06,0.16,-1.14,0.32,-0.35,0.77,0.28,1.50
"ex2520",-0.01,-1.22,1.32,2.40,2.13,3.39,4.82,4.59,4.33,2.47,3.17,3.88,1.08,0.94,-0.45,0.33,-0.31,-1.98,0.18,-0.15,-0.04,-1.22,1.30,-1.47,-1.22,0.81,0.40,0.00,-0.49,0.62,0.31,2.37,-0.03,0.19,-0.81
"ex2521",1.51,-0.28,1.48,2.36,3.59,4.44,3.40,5.60,3.97,2.55,2.72,1.93,0.71,1.24,-0.27,1.64,-1.73,-1.06,-1.10,2.23,1.50,1.26,-0.15,0.99,1.57,0.40,0.28,0.25,-0.01,0.34,0.86,-0.07,1.92,-1.69,0.49
"ex2522",0.55,0.23,2.68,1.84,3.46,5.11,5.35,3.61,2.89,2.54,2.45,1.70,0.08,1.30,-0.07,-0.36,-0.11,-0.21,-0.45,0.19,0.08,0.53,-0.92,1.35,0.57,1.00,-0.49,0.94,-1.03,1.76,-1.00,2.34,-0.59,-0.84,-1.00
"ex2523",2.02,3.11,2.18,1.91,1.61,0.83,4.28,3.72,4.26,3.48,6.86,2.00,2.14,1.50,0.98,-1.09,0.59,-0.40,-0.84,0.27,0.51,-1.03,0.21,-0.08,-1.83,0.28,1.28,-1.55,-1.04,0.06,-1.22,-1.37,-1.24,-1.27,0.85
"ex2524",-0.04,-1.89,-1.67,1.92,0.47,2.16,1.76,-0.20,-0.22,0.05,2.02,3.26,2.85,5.40,3.91,3.59,2.93,3.27,2.87,0.22,1.00,-0.55,0.28,-1.05,-1.40,0.25,0.53,0.03,-1.24,-0.93,-0.54,1.82,-0.99,0.65,1.09
"ex2525",0.65,-0.29,1.06,-1.12,0.15,1.78,2.26,3.33,3.77,5.59,4.76,4.28,5.26,2.86,1.33,0.84,1.60,-1.34,-0.62,0.99,0.88,-0.16,1.97,1.13,-0.10,-0.39,-0.24,0.61,0.39,-1.91,0.42,0.56,1.03,1.73,0.53
"ex2526",0.43,-0.02,1.05,0.44,-0.36,1.01,0.57,-0.31,-0.36,2.29,2.08,3.30,3.48,5.65,5.49,6.17,4.75,2.86,3.10,0.30,0.32,1.29,0.69,0.11,-0.25,0.61,0.30,-0.01,-1.34,0.19,2.33,-0.36,-0.30,-0.77,-0.66
"ex2527",-0.01,-1.64,0.91,-0.47,1.30,2.23,1.42,2.44,3.01,4.68,6.72,6.28,4.26,3.56,2.08,2.03,1.50,-2.13,3.17,0.17,0.40,0.29,-0.27,0.32,-0.34,-0.72,0.86,0.21,-0.20,0.42,0.62,0.94,-0.69,-0.51,0.86
"ex2528",-0.96,0.37,0.98,3.35,3.36,5.35,5.44,5.31,3.92,4.39,2.58,1.35,0.25,-0.22,0.93,-1.81,-1.95,0.09,-1.19,-0.69,-1.09,0.23,-1.51,0.21,-2.93,-1.02,0.25,-0.26,0.64,-0.40,-0.55,0.72,-2.24,1.02,-0.85
"ex2529",-2.19,0.02,3.55,1.92,0.84,3.71,2.74,1.53,1.45,2.08,0.31,1.57,1.09,3.18,1.67,0.97,2.85,2.32,1.17,-0.67,-1.39,-0.55,-0.16,-0.80,-0.06,0.24,-0.09,-0.06,-1.96,0.30,0.29,-0.72,0.24,0.61,-0.29
"ex2530",1.04,0.98,1.49,1.73,0.72,0.31,1.12,2.28,3.16,3.70,5.74,4.19,4.04,1.64,0.06,1.25,1.59,0.70,1.47,0.39,0.12,1.02,0.73,0.99,-0.81,-0.17,0.81,1.27,-0.57,-2.02,-0.83,-0.51,0.86,-0.22,-0.36
"ex2531",-0.12,1.15,0.26,1.44,2.89,3.08,2.89,1.73,3.72,3.41,5.24,2.39,2.56,2.65,1.24,2.08,-0.36,-0.19,-0.10,0.30,-0.55,-0.94,-0.20,-0.27,1.62,-1.44,-0.55,0.04,-1.39,-1.14,-0.03,-0.07,-0.43,-1.46,-0.09
"ex2532",-0.30,0.75,1.51,0.02,-0.20,1.82,1.50,1.89,1.59,3.48,6.85,4.56,2.48,3.66,3.01,2.42,1.67,0.56,-1.21,1.98,0.85,1.60,0.62,-0.37,-0.72,-1.06,0.98,-1.20,-0.15,1.19,0.17,-2.36,-1.36,0.42,-1.41
"ex2533",-0.77,1.71,0.99,1.66,3.27,3.75,5.86,3.89,5.06,3.31,2.18,3.57,-0.94,3.17,-0.65,0.42,-1.08,0.69,-0.07,-0.31,0.53,-0.12,-0.68,0.21,-0.65,-2.03,0.32,-0.20,-1.18,1.03,-0.46,-1.01,1.28,0.92,0.46
"ex2534",-1.10,-0.46,1.05,1.49,-0.03,0.64,0.60,3.36,2.53,2.97,5.10,4.59,4.62,2.84,3.12,1.77,1.11,1.77,0.18,1.88,0.05,-0.43,-0.37,-2.18,-1.68,-0.66,0.66,1.98,-0.63,-0.51,1.47,-0.89,0.33,0.43,-0.66
"ex2535",1.09,-0.36,0.56,-0.72,0.95,2.42,3.42,3.46,6.49,3.69,7.08,5.59,3.49,3.88,0.33,1.18,-1.14,0.57,-0.08,-0.57,1.02,-0.93,-0.60,-0.74,-1.41,1.08,-1.24,1.38,-0.14,-0.74,0.58,-0.32,0.29,-0.07,-1.04
"ex2536",-1.73,0.36,-2.42,0.46,-0.69,1.21,0.20,2.07,1.38,3.24,3.19,5.20,2.13,3.16,3.20,2.77,2.71,-0.87,0.72,-0.75,1.06,-2.61,-0.19,1.38,-0.71,-0.02,0.70,0.24,-1.75,-1.01,-0.19,0.85,0.05,-0.86,-0.80
"ex2537",1.46,1.16,1.37,2.27,2.35,5.40,6.07,4.02,4.78,5.18,3.24,2.55,0.56,0.78,1.55,0.58,0.50,0.74,-0.48,-1.06,-0.78,0.32,-0.89,-0.92,-1.01,-0.08,0.15,-1.27,-1.83,1.25,0.87,-1.54,0.13,1.35,-0.33
"ex2538",-0.04,-0.76,-0.58,-0.15,-1.93,-0.39,2.98,2.06,3.99,4.75,8.22,3.79,3.04,4.76,1.30,1.93,-0.59,1.15,-0.16,-0.83,-0.33,1.14,-2.82,0.68,1.39,0.58,-0.70,0.37,-1.03,-1.03,0.37,1.00,-1.73,-1.31,0.18
"ex2539",1.01,0.07,0.97,4.87,3.25,3.04,3.64,4.44,4.72,3.52,3.07,1.60,0.71,1.02,2.67,0.52,-0.10,-0.63,0.67,-1.39,-0.97,0.50,1.22,-1.56,-0.96,0.12,1.03,0.91,-0.25,-3.06,-1.23,-0.35,-0.21,0.82,-1.45
"ex2540",-1.01,-0.63,2.11,0.10,-1.42,0.69,1.69,0.98,1.46,3.12,5.68,4.20,5.78,5.08,4.61,3.89,0.77,0.75,1.93,0.03,1.37,-1.07,-0.54,-0.92,0.16,-0.46,0.11,0.63,1.74,-0.69,0.03,0.54,0.11,0.42,-1.07
"ex2541",0.82,1.55,-0.35,0.01,1.39,1.31,2.33,1.80,2.97,2.37,2.44,3.08,2.17,5.06,4.84,2.36,1.66,2.74,0.55,1.94,0.73,-0.70,-0.35,0.40,0.30,-2.81,0.78,-1.79,-0.08,0.35,-0.20,-2.20,-0.18,1.30,-1.27
"ex2542",1.66,-1.94,0.58,-0.55,-0.18,2.38,2.75,-0.00,4.25,5.84,3.63,4.87,4.52,2.86,2.89,1.36,1.20,-0.02,3.50,0.41,0.01,0.51,0.08,-0.84,1.40,0.17,1.19,0.79,0.44,2.92,-0.98,0.17,-0.47,-1.94,0.77
"ex2543",0.25,-1.00,-0.69,0.51,1.52,0.34,1.26,-0.03,0.43,0.30,1.29,3.17,4.66,5.32,6.04,3.97,4.25,3.23,3.06,0.91,0.50,0.01,0.13,-0.60,0.54,-0.49,1.71,-0.77,-0.14,-0.90,0.49,0.59,-0.95,0.11,-0.54
"ex2544",0.96,-0.03,0.83,1.82,3.55,3.03,6.16,4.45,4.52,3.96,4.17,2.57,-0.95,1.16,1.19,-0.64,-0.28,-0.93,0.56,-0.75,-0.87,-0.13,1.00,0.08,1.05,2.47,-0.79,-0.25,-0.80,1.68,0.90,0.69,-0.05,0.02,-0.63
"ex2545",0.19,1.03,1.73,1.80,-0.51,3.98,1.42,3.16,3.27,4.66,5.64,3.41,1.40,2.93,0.17,1.64,0.09,-1.55,-0.71,-1.17,-1.36,-0.15,-0.72,-1.09,-0.86,1.30,0.40,0.55,0.54,0.49,1.12,0.09,-0.00,1.35,-0.39
"ex2546",0.51,-0.17,0.03,-0.62,-0.42,2.04,2.62,0.05,3.86,2.51,7.24,3.75,4.76,3.78,1.64,3.52,-0.06,-1.59,-0.26,-0.80,1.54,0.68,-1.19,2.06,-0.70,0.73,-1.20,-0.69,-1.15,-2.34,0.39,-1.14,0.96,-2.45,-0.89
"ex2547",-0.17,2.07,0.91,2.55,3.81,4.46,4.55,4.75,3.85,2.76,2.90,1.71,1.07,0.99,1.16,-0.69,-0.90,0.48,-0.62,1.50,-0.13,-1.18,1.28,0.63,-0.56,0.10,0.56,-1.35,0.42,-0.69,0.95,-0.78,-0.28,-0.11,0.55
"ex2548",-0.63,-0.19,-0.63,0.42,1.33,0.43,2.12,0.25,0.04,1.98,1.41,2.06,4.97,3.52,3.96,3.88,2.89,3.93,1.05,0.40,-0.02,0.63,1.31,0.93,1.02,-1.44,0.37,-0.19,-0.23,0.84,0.45,-0.12,0.66,-0.31,0.89
"ex2549",-1.17,1.51,3.13,0.80,2.92,2.42,5.85,4.79,3.61,3.18,1.61,2.10,-0.51,0.52,3.24,1.02,1.37,2.31,-0.55,-0.53,0.01,-1.35,0.28,-0.76,0.03,0.45,-0.29,0.18,0.35,-0.33,-0.86,0.32,0.97,-0.60,-0.17
"ex2550",1.72,0.38,2.50,1.02,5.46,3.74,4.96,3.71,3.38,5.12,3.18,3.26,0.92,0.15,-0.04,-0.07,0.81,-0.17,-0.19,2.08,-0.62,0.55,-0.62,-0.91,-0.94,-0.02,-0.74,1.03,-0.18,-1.52,0.28,0.72,-1.72,0.86,1.75
"ex2551",0.63,0.47,0.05,1.59,-0.43,1.23,3.11,1.97,3.63,5.04,6.77,5.88,3.51,3.98,0.29,1.27,0.08,-0.19,-0.85,1.03,-1.50,0.70,1.29,0.77,0.23,1.00,-0.70,-0.36,0.62,-0.33,-0.69,-1.43,0.50,-0.07,-1.52
"ex2552",0.69,1.50,2.75,1.57,2.76,4.72,4.70,6.22,4.55,3.37,1.93,0.68,-1.40,-0.42,-0.09,0.96,0.89,1.73,0.21,-0.95,-0.80,0.06,0.44,-0.29,-0.33,-0.37,0.11,0.29,0.69,-1.96,0.71,0.73,1.06,-1.00,1.13
"ex2553",-0.34,1.32,2.14,3.05,4.46,4.95,4.27,5.16,4.02,2.81,1.61,2.41,-0.01,-1.19,-1.91,-0.17,0.26,-1.34,0.40,0.25,1.53,0.74,0.34,2.10,-0.50,-1.87,-2.07,-1.75,0.61,0.61,0.79,0.64,0.23,0.12,0.05
"ex2554",-1.41,2.07,1.38,1.16,0.65,2.36,-0.43,0.74,2.24,0.66,1.86,2.88,2.25,0.94,4.15,3.84,2.13,0.60,1.25,-1.03,0.49,1.72,1.02,-0.36,-1.34,-1.06,-0.35,-0.31,-1.43,0.71,1.25,-0.91,0.03,-0.25,-1.31
"ex2555",2.74,1.55,1.30,3.63,3.81,3.50,3.07,3.43,4.35,4.10,3.28,-0.38,0.73,0.42,-1.21,-1.07,-0.90,-2.52,0.59,0.24,0.71,-0.34,1.16,-0.85,-0.26,-1.64,0.04,1.55,1.48,-0.09,-2.70,2.72,0.77,0.70,1.62
"ex2556",0.47,-0.05,-1.83,-0.26,-0.02,0.72,1.72,-0.09,4.74,4.68,5.82,6.59,3.51,2.03,1.96,0.96,1.33,2.02,0.33,-0.64,-0.41,-1.48,0.44,-2.79,-0.36,1.02,-0.08,0.64,-1.71,0.21,-1.27,-1.07,-0.22,1.56,-0.36
"ex2557",-0.38,-0.43,1.47,-2.50,0.54,-0.09,2.54,2.79,4.11,6.35,4.94,5.74,4.49,4.72,2.25,2.16,0.87,0.22,-0.19,0.51,1.32,0.78,0.81,1.58,-0.24,1.37,-0.12,0.02,-1.57,0.05,-0.33,0.91,-2.00,0.01,0.30
"ex2558",-0.02,0.62,-0.36,0.61,1.63,2.89,3.34,2.94,2.12,1.44,0.92,2.46,2.96,3.09,5.87,3.24,3.27,2.47,0.59,0.18,2.26,0.26,-1.68,0.11,-0.09,-0.41,-0.02,0.24,-0.98,-0.21,0.50,0.14,1.25,-2.47,-0.15
"ex2559",0.84,0.39,-0.90,1.44,0.28,0.89,1.73,2.01,3.77,5.06,4.77,4.66,4.88,1.73,1.85,2.63,1.78,2.80,0.96,0.10,-0.40,0.26,-0.03,-0.63,0.19,-0.80,-0.39,0.53,-1.17,-1.07,0.01,-1.06,-0.11,0.51,0.80
"ex2560",0.07,-0.57,1.60,1.39,3.51,4.56,3.47,3.47,1.63,1.54,1.36,3.88,1.69,3.57,2.92,3.22,2.55,2.67,0.13,-1.00,-0.07,-0.43,0.75,1.54,0.94,0.75,0.91,0.10,0.43,-1.01,-1.59,-0.04,-1.19,-1.80,-1.69
"ex2561",-0.83,1.64,0.64,0.68,-0.16,-0.35,2.17,2.02,4.86,3.83,5.46,5.66,3.65,1.87,1.68,1.86,1.27,1.48,0.12,0.54,0.04,-1.04,1.39,-1.22,0.58,-0.05,-0.22,-0.42,-0.56,-0.73,-1.84,-0.65,-0.05,-1.10,0.21
"ex2562",0.61,1.80,2.23,4.10,4.49,3.99,6.27,5.12,3.62,3.07,4.33,1.37,0.06,-0.37,1.07,-0.81,-0.10,-0.12,0.10,0.93,0.13,-0.08,-0.21,-0.75,1.10,1.40,-0.16,-0.77,-0.31,-1.50,0.11,0.06,1.49,-1.77,0.48
"ex2563",0.91,-1.16,-0.22,0.64,0.82,-0.94,1.18,1.50,0.42,3.23,3.79,4.15,2.24,4.55,3.39,3.46,2.39,-0.12,0.55,3.17,-0.76,1.03,0.64,0.56,-1.34,0.23,-0.25,-0.03,0.72,0.68,-0.02,-1.00,0.30,1.22,1.09
"ex2564",1.11,-0.17,0.13,0.27,-0.04,1.23,0.87,-0.80,0.50,3.21,2.42,2.67,2.87,6.54,6.03,4.26,3.17,3.36,2.91,-1.20,0.76,2.95,-0.85,1.42,1.20,0.20,0.99,0.60,0.27,-1.09,-0.42,-0.94,0.71,1.99,0.10
"ex2565",-1.06,1.14,0.79,-0.34,0.96,0.97,2.48,3.31,3.35,4.70,5.71,5.88,3.42,3.24,1.36,2.16,-0.18,0.76,-0.76,1.46,-0.06,0.28,-0.86,1.71,-0.64,-1.25,-0.02,1.02,0.45,-1.51,-0.89,1.50,-0.25,0.40,-1.24
"ex2566",-0.25,0.36,2.44,0.26,2.64,2.85,5.27,3.95,3.65,4.30,2.94,2.56,2.81,0.77,1.57,2.68,-0.08,-0.29,0.90,-0.22,-0.37,-1.31,1.02,-0.32,1.63,1.52,1.11,1.66,-3.08,-0.08,-0.45,-0.81,-0.09,-1.08,-0.37
"ex2567",0.92,-0.36,0.23,2.47,2.08,3.48,5.69,5.50,2.55,2.63,3.29,4.65,3.10,0.30,1.51,-0.26,-2.49,-1.69,0.77,-0.67,-0.26,-0.84,2.10,0.68,3.07,0.45,-0.95,-1.24,1.39,-0.40,-1.51,-1.08,-0.69,-1.00,-0.56
"ex2568",-0.34,-0.20,2.72,2.60,2.05,2.39,3.51,1.73,3.71,2.18,5.15,3.93,1.71,-0.84,-1.19,0.85,-1.36,1.32,-1.07,0.06,-1.82,-0.07,0.01,-1.04,0.66,1.51,0.30,2.02,-0.15,0.35,2.43,-1.58,-0.74,0.04,-0.52
"ex2569",-0.02,0.51,0.36,-0.45,-0.44,-1.10,-1.06,2.62,0.24,1.26,2.17,4.08,5.53,3.74,5.68,5.80,1.45,3.03,2.48,1.62,-1.43,0.30,-1.09,-0.20,-1.09,-0.29,-1.26,-0.42,-1.50,1.50,0.25,-0.93,-0.46,-0.01,0.64
"ex2570",-0.73,-0.00,-0.40,-0.10,0.16,0.21,1.41,1.49,0.46,0.80,3.19,4.65,5.31,3.87,5.61,2.51,2.20,5.15,1.58,3.33,1.88,0.68,0.17,-0.22,-0.08,0.42,-0.55,-0.13,1.32,-1.35,-0.62,-0.91,-0.18,-0.96,0.99
"ex2571",0.45,-1.60,0.78,1.25,1.02,1.65,4.32,3.55,5.73,3.55,6.19,2.14,3.10,0.37,1.57,0.02,-1.17,-1.18,0.60,0.16,-0.10,-0.06,1.33,-1.60,-0.11,-0.98,-2.47,-0.40,-0.75,0.55,0.40,0.42,-0.18,0.11,-1.86
"ex2572",0.81,1.19,0.92,1.67,4.31,6.35,4.43,2.43,1.53,2.58,2.95,1.38,1.12,0.13,1.84,0.89,0.56,2.18,0.03,1.97,0.28,1.13,0.24,-0.55,0.53,0.58,-1.38,1.57,-0.40,-0.02,-0.19,-0.14,0.01,0.31,0.31
"ex2573",0.39,-0.79,0.57,-1.41,1.73,0.73,1.70,1.62,4.31,4.82,5.85,5.32,3.78,2.78,2.74,1.48,-0.38,-0.16,2.49,-0.07,-0.81,-0.37,0.30,1.34,0.12,-1.12,0.05,-1.48,1.36,-0.06,-0.32,0.84,1.13,-0.51,1.07
"ex2574",-1.96,-0.82,-0.99,0.04,-1.61,0.02,1.36,2.34,1.97,4.72,4.98,3.17,3.66,4.22,5.25,2.84,2.43,2.13,1.23,0.00,0.14,-0.21,-1.02,-0.67,-0.59,0.24,-1.57,-0.40,0.16,-1.14,1.51,-0.01,1.03,-0.81,-0.39
"ex2575",-0.43,-0.99,0.65,1.99,3.30,3.90,2.39,3.88,2.36,2.43,2.47,1.29,0.83,2.42,3.67,2.22,-0.70,1.22,0.58,-0.68,0.25,-0.81,0.14,0.72,0.54,2.17,-1.31,1.60,1.50,-0.43,-1.75,0.73,-0.42,-0.51,1.25
"ex2576",2.37,-0.49,2.38,4.18,3.52,5.90,6.45,4.76,5.09,3.22,2.36,3.00,0.05,-0.49,-0.90,1.09,0.31,0.21,0.27,0.43,-0.10,-1.77,0.58,-0.05,-1.01,-1.79,-2.19,-0.72,-1.40,-0.67,-0.34,-1.14,0.41,-0.05,0.38
"ex2577",-1.12,0.27,0.17,-0.69,1.11,2.55,3.48,2.02,0.71,2.49,1.83,2.37,2.21,2.26,5.23,3.81,2.29,2.03,1.52,-0.87,-0.36,0.57,0.99,-0.51,0.79,-0.32,1.05,-0.58,-0.67,-1.66,1.78,-1.42,0.74,1.64,0.50
"ex2578",0.48,-1.59,0.73,2.09,1.90,1.38,4.20,4.39,3.69,5.67,2.59,3.77,2.07,0.91,0.93,0.43,-0.33,-1.26,1.01,0.11,1.15,0.81,0.07,-0.67,-0.50,-0.15,-0.33,-0.70,-1.87,-0.02,-0.71,0.44,1.01,0.13,1.67
"ex2579",1.02,1.22,2.63,1.30,-0.00,0.65,1.38,1.62,-0.71,3.02,3.49,3.04,3.40,3.99,3.62,2.25,3.72,0.26,0.39,-0.10,0.23,0.41,-0.52,-0.01,-1.35,-0.59,-0.07,0.33,1.15,-0.16,-0.40,1.81,-0.69,1.38,0.08
"ex2580",1.40,-1.07,0.82,3.41,1.97,3.40,3.23,4.72,2.58,3.03,1.61,0.16,0.78,2.61,0.22,1.14,0.25,1.35,1.87,1.78,-1.06,0.09,-0.08,-0.47,0.23,-0.81,-1.91,-0.15,-2.33,-0.88,1.33,-0.38,1.10,0.00,-0.34
"ex2581",0.07,0.79,0.50,1.22,1.93,3.90,3.60,5.11,3.71,4.54,5.01,2.66,1.56,2.60,1.91,0.61,-0.02,0.46,-0.77,1.32,0.27,-0.49,-0.37,1.65,-0.72,-0.34,-1.61,-0.95,0.57,0.61,-0.99,0.69,0.99,0.04,-0.49
"ex2582",-0.83,0.45,-0.54,1.43,-0.17,1.42,2.24,3.07,2.96,6.44,4.52,4.19,4.03,2.15,2.91,-0.08,-2.59,0.17,0.05,-1.10,-0.60,-0.55,1.64,-0.64,0.26,-1.11,-0.63,0.54,1.87,0.87,-0.16,0.50,0.34,0.58,0.14
"ex2583",-0.36,-0.25,-0.44,-0.80,-0.81,-0.07,0.70,-0.20,2.44,3.47,3.52,2.79,4.28,4.33,5.92,2.64,3.61,0.93,2.21,2.07,0.91,0.83,1.15,-0.46,-1.79,-0.25,-2.33,-1.40,-0.05,1.66,-1.81,-0.72,0.03,-1.43,-0.17
"ex2584",0.30,0.18,1.76,3.29,3.59,2.13,4.86,4.88,3.92,2.93,1.63,2.88,-0.09,1.09,0.10,-0.84,-0.31,1.30,-0.80,-1.28,0.88,0.35,0.76,1.19,0.22,0.75,0.22,-1.22,-1.39,-0.55,-0.07,1.01,-0.31,-0.50,0.27
"ex2585",0.08,0.45,0.61,1.13,4.81,5.23,5.09,5.02,3.19,2.20,1.22,1.17,0.36,0.31,-0.27,0.91,-0.96,2.71,-0.67,-1.42,0.30,-0.06,-1.52,0.42,-0.31,0.20,1.43,1.34,0.07,-0.51,-1.24,-1.71,2.09,-0.49,0.36
"ex2586",0.45,1.24,-1.00,-1.42,-0.02,-0.90,-0.65,1.05,0.12,3.30,1.53,1.80,4.88,6.29,6.62,7.66,3.83,3.15,2.11,2.77,0.53,-1.58,-1.90,0.20,-0.56,0.92,0.33,-0.59,0.32,-0.17,-1.14,-2.24,0.05,-0.14,1.35
"ex2587",-1.22,0.80,1.09,1.84,3.37,2.73,3.69,2.61,1.50,2.54,5.23,1.87,4.83,4.26,3.38,3.54,2.44,0.76,0.89,0.38,-0.68,-0.49,-0.41,0.85,-1.42,1.52,-0.17,1.70,0.74,0.08,1.41,-1.91,0.24,0.52,1.52
"ex2588",-0.77,1.33,0.84,-0.93,1.61,0.40,2.50,1.25,2.68,3.70,5.27,4.55,4.23,1.91,3.29,2.53,0.23,-0.22,-0.97,-0.15,-0.85,-0.41,1.45,0.56,0.94,-0.03,3.79,0.74,1.03,-0.63,0.98,0.81,0.14,0.67,-1.74
"ex2589",1.44,-1.51,-1.24,0.75,-0.85,0.41,2.78,1.36,3.31,4.74,5.14,3.90,2.25,5.30,3.15,1.66,0.66,-0.36,2.51,0.78,0.43,-0.65,-0.83,0.60,0.79,0.52,-1.26,0.35,0.04,-0.53,-0.57,0.33,-0.82,1.07,-0.18
"ex2590",-0.58,2.04,2.51,2.97,1.90,4.62,3.59,4.07,3.50,3.98,3.99,3.03,2.58,1.35,2.60,0.01,0.94,1.21,0.55,0.75,0.52,1.57,0.57,2.23,0.22,1.14,-0.89,-0.10,1.02,-0.19,-0.67,0.16,1.35,0.46,0.29
"ex2591",-0.17,1.99,-0.70,2.11,1.58,3.41,3.35,3.01,3.10,3.13,5.78,2.72,2.78,1.73,2.67,-0.19,-1.31,-2.43,-0.23,0.71,-0.16,0.31,-1.21,1.64,0.97,0.47,-0.51,1.16,-0.35,0.13,-1.01,-0.65,-1.68,1.39,-0.76
"ex2592",1.74,-1.58,-0.96,0.15,-0.04,0.70,1.62,2.71,1.59,4.13,3.87,2.58,3.74,3.36,3.60,3.64,3.65,1.21,-0.27,2.13,0.37,-0.35,0.09,0.92,-1.44,-0.43,-0.22,1.33,-0.14,0.09,-1.23,1.05,1.01,1.20,-0.89
"ex2593",0.23,1.23,-0.90,-0.85,1.78,0.13,2.89,-0.31,1.79,2.84,1.81,2.23,3.36,1.87,4.04,2.85,0.97,3.34,1.46,1.77,0.26,-0.17,-0.36,1.23,-1.13,0.34,-1.41,-0.09,-1.38,1.47,0.04,0.42,0.27,1.28,-0.56
"ex2594",-0.53,-1.22,-1.58,1.18,-0.61,-0.01,1.66,4.30,0.37,5.63,5.13,1.68,4.53,4.40,2.88,3.78,2.09,-0.83,0.24,-0.27,-0.28,0.06,-0.51,0.61,0.88,1.14,0.04,0.62,-1.51,0.19,-1.29,0.62,-0.52,0.24,-1.25
"ex2595",0.67,1.66,2.44,3.18,6.48,5.33,5.28,4.60,1.79,3.13,2.57,0.30,0.37,-0.24,-0.35,-0.84,-0.84,-0.70,0.01,-1.66,0.11,1.03,1.61,-0.67,-2.10,0.38,-1.88,-0.15,-0.07,-1.28,-0.70,-0.50,0.02,-1.37,-0.46
"ex2596",-1.00,-0.88,-1.02,1.50,2.01,-0.86,2.11,2.81,3.66,4.19,5.59,4.09,3.69,3.22,1.92,1.24,-0.47,-0.59,0.34,-1.65,-1.42,-1.09,0.19,0.48,-0.87,0.01,0.93,2.22,0.27,-0.66,0.68,-1.00,0.81,2.69,-0.24
"ex2597",0.00,0.90,0.60,-0.21,-0.21,2.79,4.48,4.40,4.41,3.57,3.05,4.09,1.63,2.18,1.01,-1.19,-0.57,-0.48,0.95,0.24,1.18,-0.03,-0.11,-0.30,-0.96,0.02,-0.91,-0.09,-0.69,-1.01,1.98,0.71,-0.31,-0.26,0.41
"ex2598",-1.30,2.36,2.47,1.74,4.76,3.22,5.70,4.63,4.39,2.73,1.45,1.52,0.03,2.06,0.03,-0.41,-0.41,-1.39,0.70,-1.26,0.02,-1.32,-0.16,0.04,-0.32,0.33,-1.88,0.09,-0.48,-0.28,-0.52,-0.30,-0.59,0.23,0.43
"ex2599",0.20,1.31,0.42,0.76,0.75,2.94,3.30,4.09,2.96,4.83,4.63,3.56,5.07,4.81,1.91,0.49,-0.11,-0.01,-1.62,-0.49,-0.46,1.01,1.55,0.42,-0.15,-1.45,1.10,-0.84,1.29,2.17,-2.17,-1.77,0.59,0.75,-1.27
"ex2600",-0.72,2.46,3.54,1.07,3.06,4.24,5.62,4.70,3.11,4.43,3.26,2.00,-0.89,0.29,1.04,0.11,-0.20,2.64,1.30,0.92,-2.02,0.91,-0.37,-0.66,-1.08,-0.21,-1.49,-0.17,0.42,-0.58,0.17,-0.52,-1.87,0.22,1.29
"ex2601",0.58,-1.13,1.10,0.33,1.18,2.29,3.73,1.97,1.92,2.25,2.38,2.98,2.87,1.38,2.93,3.83,1.89,2.30,1.83,2.24,0.13,0.34,0.74,1.20,0.70,0.42,0.21,0.48,0.26,0.37,-0.94,-2.22,0.86,0.09,0.97
"ex2602",-1.07,-0.08,1.10,1.98,3.23,4.28,7.04,5.38,3.18,2.38,3.45,2.33,-0.83,0.29,0.23,0.83,-0.71,-1.30,1.37,1.21,-0.33,0.43,-1.35,0.08,0.78,-0.97,2.23,-0.57,-0.77,-1.37,0.95,1.03,0.06,-0.61,-0.19
"ex2603",0.10,-0.24,0.34,2.64,2.43,2.13,5.05,3.22,5.20,3.62,1.97,3.26,-0.38,2.06,0.21,-0.94,0.23,0.36,-0.60,0.16,-1.23,-0.93,0.09,0.28,3.11,-0.22,1.30,0.51,-1.67,0.63,0.42,0.73,0.04,0.74,-0.61
"ex2604",0.53,-0.36,1.30,-0.83,-0.06,0.72,1.71,2.59,1.99,1.29,1.25,2.15,2.37,2.59,5.11,4.02,2.38,2.96,3.41,0.38,0.24,-0.59,0.07,1.58,1.85,0.53,0.94,0.37,0.09,-0.85,0.52,-0.38,-0.54,-0.32,0.60
"ex2605",-0.23,-0.16,0.56,0.03,-0.22,-0.45,0.22,1.97,-0.84,1.71,2.19,3.33,2.33,5.00,3.68,6.18,2.61,2.18,2.62,2.06,-0.66,0.80,1.34,0.16,1.04,0.43,-0.51,-1.09,-0.39,0.78,1.84,2.04,-0.64,0.54,1.62
"ex2606",2.55,1.32,0.83,0.88,1.29,2.59,2.88,2.69,1.29,0.69,2.67,-0.31,2.71,3.56,3.25,1.72,1.88,2.48,0.07,0.17,1.24,1.88,0.23,-0.18,0.32,0.60,-0.02,-0.36,-3.08,0.28,-2.93,1.44,0.91,-0.09,-0.39
"ex2607",-0.43,1.09,-0.72,-0.59,0.62,1.41,0.71,1.56,0.93,1.60,0.26,2.13,3.79,3.01,4.71,3.05,3.11,3.23,0.99,1.57,1.02,-1.12,0.06,2.28,0.51,-0.41,-1.39,-0.21,1.29,0.25,0.57,-0.55,0.91,-1.38,-0.29
"ex2608",-0.98,-0.68,0.38,0.85,2.39,0.24,3.93,5.24,2.78,5.17,4.41,4.08,1.12,0.10,0.60,0.64,-0.28,-0.58,0.73,0.97,0.01,-1.26,-1.34,0.36,0.91,-0.80,0.32,2.13,0.64,-0.51,0.36,0.98,-0.25,-0.53,0.72
"ex2609",0.91,0.25,0.61,-0.84,0.25,0.23,-0.99,-1.72,0.56,3.00,3.70,3.31,4.67,4.16,4.60,4.16,3.42,1.64,1.98,0.49,-0.77,0.26,0.99,-1.73,-0.04,-0.52,-0.83,0.88,-0.62,0.45,0.15,0.48,-0.76,0.08,2.03
"ex2610",-0.51,-0.71,0.96,-0.35,1.09,2.81,3.61,2.65,4.02,3.20,4.95,0.59,1.90,0.79,1.69,1.11,-0.98,-0.66,2.31,1.11,0.21,-0.11,0.28,-0.45,0.26,0.73,-0.02,-1.21,-0.08,0.31,-0.04,1.19,-1.82,-0.78,-0.67
"ex2611",0.71,0.24,0.64,2.01,2.33,4.30,4.99,4.42,3.76,4.29,2.79,0.74,0.48,0.80,1.64,1.52,2.03,-0.15,1.74,1.45,-1.53,0.56,-1.87,-1.01,0.29,0.66,-0.88,0.99,-1.65,0.10,-1.71,1.10,0.38,1.59,1.04
"ex2612",-0.47,2.46,1.41,3.86,2.94,2.79,3.40,3.37,3.69,3.38,2.51,3.73,1.42,-0.08,0.80,-0.44,0.78,-1.29,-2.09,-0.73,-1.56,0.27,-0.30,0.51,1.47,-2.09,0.97,0.81,-0.30,0.33,-0.76,0.72,-0.59,0.03,0.71
"ex2613",-0.52,0.12,0.09,-0.24,1.17,-2.14,1.58,-0.23,1.26,0.83,2.84,2.38,4.78,6.04,3.68,3.88,5.75,2.06,2.28,0.75,-0.58,-0.15,1.07,-0.21,0.83,0.17,2.18,0.39,0.68,-1.05,-0.02,0.31,-0.65,1.04,0.67
"ex2614",0.90,0.19,1.48,0.13,0.88,1.58,3.54,3.41,1.93,2.80,0.58,1.60,2.32,2.39,5.31,5.00,2.91,2.88,0.79,-0.35,0.10,-0.53,-0.98,0.88,-0.01,1.96,0.75,1.09,-1.95,0.01,-0.59,-0.10,-1.11,0.84,0.83
"ex2615",0.58,-0.51,0.83,1.28,1.86,3.50,2.31,2.18,0.54,2.70,0.61,1.19,1.36,0.75,2.41,1.02,2.54,0.81,2.36,1.24,1.20,0.36,0.09,1.60,1.56,0.63,1.02,-0.27,0.45,-0.70,1.10,-0.78,-1.21,0.82,1.33
"ex2616",1.76,-0.67,-1.56,0.12,-0.38,2.11,3.13,2.87,4.78,4.33,7.65,4.61,3.15,2.85,1.97,1.61,1.62,-0.73,-0.45,0.27,-1.02,0.90,-1.30,1.53,0.34,-0.22,0.43,-0.34,-0.96,1.30,0.33,0.26,1.45,-0.26,-0.55
"ex2617",-0.54,0.04,1.03,-0.63,1.13,-0.35,0.19,-1.62,0.10,3.41,4.10,3.26,4.54,4.62,4.12,4.74,4.07,2.13,2.74,1.79,1.07,-0.29,0.29,-0.65,-2.07,0.47,-0.85,0.20,0.74,0.65,0.39,0.70,-1.99,0.56,1.45
"ex2618",-0.33,0.32,2.22,0.42,0.60,2.14,4.83,2.32,3.69,1.29,3.09,1.13,2.34,3.87,4.12,2.38,3.54,1.21,1.09,0.96,-0.11,-0.32,0.27,1.56,-0.90,-0.69,2.01,1.25,0.46,-0.39,0.62,1.07,-0.94,0.51,-0.04
"ex2619",-0.86,-0.93,1.03,1.83,0.87,0.65,0.62,1.78,2.57,1.38,1.71,2.49,2.83,4.81,4.21,2.94,3.38,1.33,-0.20,0.63,-1.88,-0.35,1.04,0.40,1.67,0.37,0.07,-0.04,0.11,-1.22,0.64,0.14,-0.18,-0.52,0.37
"ex2620",1.96,0.61,-0.81,0.70,0.84,0.39,0.11,3.84,3.97,3.75,5.64,5.33,5.29,4.46,2.53,1.39,0.09,1.34,-0.91,1.80,-0.58,-0.06,-0.66,0.39,-0.36,1.29,-0.94,2.10,-0.27,0.22,-0.32,-0.54,-0.11,0.11,0.78
"ex2621",-0.43,1.39,-0.58,1.32,1.22,1.70,2.68,3.40,4.67,4.80,5.72,3.03,4.40,1.55,-0.30,-1.23,-0.57,0.76,-0.71,-0.15,1.77,-0.71,-1.32,0.24,-0.06,-1.40,-0.72,-0.02,1.26,0.60,-0.59,0.05,-0.60,-0.26,-2.12
"ex2622",1.29,1.77,-0.75,-1.23,-0.03,0.75,0.32,-1.16,-0.79,1.53,1.26,2.81,4.95,4.76,3.12,3.87,3.97,1.83,0.06,2.21,0.33,-0.53,0.35,-0.69,0.35,0.52,0.20,-0.08,-2.27,2.01,0.11,0.69,-0.50,0.28,0.40
"ex2623",-0.62,0.48,1.39,2.15,3.49,4.12,4.73,5.64,3.65,3.41,0.66,2.39,-1.51,-0.29,1.17,-1.64,-0.82,-0.20,0.26,0.27,0.88,-1.77,-1.07,-1.60,-2.05,-2.13,0.11,-0.03,-1.94,-0.62,0.18,0.09,1.21,-0.39,2.36
"ex2624",-0.41,0.62,1.40,2.22,4.58,5.90,5.03,3.71,3.23,4.32,1.19,0.69,0.46,2.01,0.12,0.18,0.88,-0.07,0.79,-0.58,0.07,-1.58,-0.73,0.27,0.31,-0.79,-0.64,1.18,1.63,1.07,-0.46,-0.69,-1.48,0.72,-0.01
"ex2625",-1.64,-0.45,1.09,1.48,1.34,-0.59,1.38,1.19,1.32,2.24,2.87,3.31,2.23,2.78,5.61,4.04,3.42,1.83,2.30,-0.27,-0.82,0.05,0.35,1.47,0.21,-0.18,-0.43,-0.71,-0.55,-1.42,1.57,0.90,1.06,-0.27,-0.32
"ex2626",-0.16,-0.34,-0.51,1.95,1.95,5.01,6.82,5.43,2.60,1.55,2.79,-0.06,0.00,1.36,-0.74,-1.34,0.04,1.02,-1.63,-0.50,1.51,-0.27,-0.51,0.57,1.42,0.44,1.28,0.87,-0.77,1.45,0.67,-0.54,0.78,-0.10,0.01
"ex2627",-1.19,-1.38,-1.33,0.80,0.14,2.99,1.99,0.07,2.69,3.87,4.47,3.98,1.17,1.34,2.09,2.41,-2.80,-0.28,1.49,-1.04,-1.12,0.12,1.38,-0.30,0.27,0.30,-1.60,0.67,-1.37,0.13,0.28,-0.53,1.22,-1.77,0.59
"ex2628",-1.10,0.66,2.03,3.70,4.26,4.98,6.04,4.81,3.37,2.80,1.51,1.48,0.99,1.38,1.32,1.05,0.55,-0.04,-0.54,-0.08,0.19,0.64,0.67,-2.01,-1.83,-0.54,0.44,-0.61,-0.47,0.28,0.49,-0.42,-1.61,-1.31,0.12
"ex2629",-0.98,0.59,-0.75,1.14,-1.05,-0.24,-0.29,2.63,2.32,1.50,4.86,4.76,4.05,3.95,4.39,3.46,3.17,2.92,0.50,1.37,0.82,-0.09,1.37,-0.72,1.05,0.24,0.18,0.39,0.57,-0.01,0.16,-2.27,0.55,-0.21,-0.84
"ex2630",-1.32,-0.26,0.87,2.43,3.98,2.27,5.41,5.75,5.89,3.70,2.22,3.17,-0.42,0.97,0.59,1.55,-1.09,1.92,0.24,-0.54,1.04,0.52,2.47,0.90,-0.84,0.56,-1.24,-1.24,-1.39,-0.13,0.60,-1.35,1.52,-0.27,-1.57
"ex2631",-2.30,0.96,0.48,1.76,1.45,2.97,3.68,1.61,0.06,-0.62,3.10,1.15,2.77,4.24,4.46,3.13,2.28,1.85,0.34,1.67,-0.01,-0.04,-2.06,-0.41,-0.60,-0.16,-1.53,0.19,-0.60,0.05,-0.14,-0.13,1.40,0.50,-0.10
"ex2632",0.06,-0.49,2.72,2.92,1.28,1.40,2.21,2.58,1.22,0.67,3.44,4.12,3.11,3.15,2.97,2.60,3.25,2.46,1.60,0.38,0.50,-0.19,1.08,0.26,-0.51,-0.50,2.28,-0.43,0.20,-0.11,-2.04,1.37,0.83,0.79,1.23
"ex2633",-0.03,-1.02,-0.53,0.04,-0.73,1.29,-0.58,-0.27,0.11,0.33,1.79,5.71,3.64,4.92,6.12,4.91,3.24,1.92,0.40,-0.68,0.05,-1.78,1.67,1.66,1.24,0.46,1.15,0.06,0.04,-0.25,-0.23,1.61,1.14,-0.26,0.07
"ex2634",-1.34,0.96,-0.81,1.41,2.67,2.65,1.74,2.51,3.41,2.83,1.01,3.53,1.89,3.21,2.73,1.77,1.61,1.54,1.12,-0.18,-0.13,2.12,-0.15,-0.05,0.60,0.27,-0.81,0.07,1.94,0.04,-0.84,-0.79,-0.83,0.74,-0.84
"ex2635",-0.49,-1.54,2.22,0.57,-0.18,2.64,0.74,3.15,2.54,4.42,6.25,3.11,3.75,3.54,1.95,2.29,1.89,0.14,0.01,0.19,2.47,-0.95,0.38,-1.25,0.45,0.45,-0.22,-0.69,0.64,-0.11,-2.32,-1.58,0.15,1.01,0.43
"ex2636",0.74,-0.17,-0.36,-0.40,0.48,1.33,2.54,4.43,3.10,4.48,8.09,5.32,2.75,2.55,0.88,0.20,-1.61,-0.43,0.41,2.59,0.67,0.64,1.89,0.03,-0.73,0.36,0.38,-0.80,-0.24,0.62,-0.78,0.82,0.78,-0.52,-0.46
"ex2637",1.55,1.42,2.71,0.86,0.51,-0.92,0.21,0.10,2.49,3.31,3.90,3.86,2.94,3.65,2.89,1.46,1.50,1.58,1.36,1.01,0.75,1.34,-1.20,2.29,-0.26,2.24,-2.45,0.30,0.37,1.48,-1.41,1.45,-0.07,-0.05,-0.68
"ex2638",0.63,-0.10,2.14,1.46,2.36,1.25,1.32,2.34,0.24,2.94,0.29,3.07,3.39,3.86,5.12,2.43,1.63,2.51,1.85,0.78,-0.28,0.60,0.57,-1.23,1.02,-0.42,-1.57,-0.82,1.09,0.93,-0.71,-0.75,-1.23,-0.98,0.38
"ex2639",-0.06,2.35,-0.31,1.43,3.16,3.28,4.28,3.51,3.13,3.67,2.44,2.04,3.59,2.41,0.70,0.97,0.56,0.06,-1.41,0.51,-0.49,0.36,-0.43,-0.47,0.12,0.68,0.82,-2.25,-0.76,-0.37,0.22,0.43,-0.03,-0.64,0.37
"ex2640",-0.75,1.46,0.26,0.82,0.09,1.71,4.38,3.76,3.54,4.76,3.52,2.39,2.56,0.82,2.09,0.51,0.18,0.37,-1.44,-1.22,-0.84,-2.06,0.95,-0.28,0.57,1.23,1.45,-2.00,-1.57,-0.03,0.04,-0.66,0.20,-0.42,-0.03
"ex2641",0.04,0.78,-0.11,2.33,3.01,3.64,4.38,2.53,3.46,2.44,3.52,1.96,-0.24,1.92,0.50,1.26,-0.53,0.45,-0.18,0.08,0.10,-0.05,-1.23,0.59,-0.98,-1.57,0.21,0.45,0.34,1.55,0.08,0.61,0.62,-1.81,-1.36
"ex2642",-0.18,-1.13,0.40,-0.10,-0.73,0.43,1.69,0.56,2.19,0.11,-0.36,3.13,3.93,2.62,7.43,3.59,3.64,3.77,2.05,0.93,1.49,-1.16,-0.70,0.18,-3.03,-1.15,-0.37,-0.72,-0.50,0.78,-0.66,-1.08,-0.59,-0.32,1.79
"ex2643",-1.62,0.73,2.22,2.17,0.96,3.38,3.73,3.44,4.38,3.23,5.11,2.72,1.01,1.52,1.12,2.21,1.59,-0.16,-0.66,-0.61,0.63,0.38,1.77,-1.29,0.64,-0.48,0.64,-1.33,-1.52,1.49,0.84,-0.56,-0.07,1.37,0.12
"ex2644",-0.41,0.18,-0.52,-0.08,0.28,-0.45,0.57,1.90,3.53,3.25,4.76,5.25,3.21,5.36,3.36,1.41,0.72,-0.53,0.21,0.41,-1.23,-0.44,0.07,-0.42,0.64,1.18,1.54,1.05,-0.25,-0.01,0.00,-1.60,1.07,0.82,1.13
"ex2645",-0.47,1.04,-0.51,2.31,2.05,2.54,3.98,3.71,2.36,4.50,5.10,3.56,4.02,5.43,2.02,1.70,1.81,1.18,-0.62,-1.19,-0.25,1.07,2.31,-2.86,-1.44,0.36,-1.61,-0.29,0.30,-2.72,-1.59,0.26,1.86,0.39,0.30
"ex2646",0.43,-0.44,0.81,1.41,0.68,3.74,2.31,3.15,5.04,2.45,3.01,3.87,1.59,0.71,0.41,-0.81,-0.08,0.12,0.35,-0.22,1.47,-1.29,0.79,-0.82,0.60,-0.27,0.35,0.50,-0.07,0.05,-2.56,-0.14,-0.20,-0.20,0.15
"ex2647",0.49,-0.73,-0.27,-0.02,-0.45,2.44,1.73,2.89,1.26,3.93,5.15,4.69,4.60,4.77,4.33,3.08,0.62,0.38,0.25,1.37,-1.09,0.44,0.69,-2.07,-0.93,-0.77,0.32,0.44,-0.88,0.30,0.28,-0.25,-0.32,-2.63,-0.33
"ex2648",0.42,1.92,2.45,1.73,2.92,2.75,6.20,4.34,4.07,2.19,1.70,2.67,0.83,0.71,2.10,-1.63,-0.26,-0.47,0.87,-1.54,-1.18,-0.15,0.01,1.43,-0.29,0.39,0.38,0.69,1.20,-0.71,-1.27,-0.22,-0.31,0.84,0.85
"ex2649",0.10,0.21,0.42,0.04,0.18,1.46,1.63,2.03,1.87,3.02,5.22,5.16,5.37,2.52,1.17,3.11,1.88,-0.12,-0.40,-0.82,0.06,1.18,-1.03,-1.08,-1.21,0.53,0.59,-0.18,-0.45,-0.21,-0.54,-0.66,0.23,-1.13,-0.67
"ex2650",-1.76,1.68,1.09,-0.93,1.49,0.99,-0.61,0.32,-0.29,0.68,1.35,2.60,4.15,4.25,5.75,4.42,3.24,3.15,0.72,1.05,0.93,-0.56,-0.13,0.92,0.38,0.82,-0.56,0.27,-1.28,1.21,0.22,-1.32,-0.39,0.09,0.48
"ex2651",-1.16,0.25,0.42,0.86,-0.60,0.18,2.84,1.10,3.99,0.98,3.10,3.16,3.64,4.48,5.17,5.15,2.66,2.13,1.83,-1.00,2.14,1.25,-0.58,-1.11,1.25,0.12,0.44,1.29,-1.17,0.18,-0.43,1.65,-1.03,1.58,1.61
"ex2652",0.92,0.32,0.52,2.40,4.38,4.32,6.16,4.38,3.65,2.43,1.44,3.28,-0.22,-0.62,-0.80,-0.40,-0.54,0.03,0.76,-0.02,-0.07,1.07,0.08,-0.85,0.95,-0.10,1.09,0.68,0.14,1.48,0.22,-2.05,3.21,0.52,-0.11
"ex2653",-0.11,-0.65,2.21,0.59,2.52,2.59,1.58,3.26,-0.23,3.10,3.07,3.41,1.27,1.48,3.54,0.81,1.27,2.06,2.59,-0.25,0.45,-1.29,-0.43,1.41,-0.38,-0.17,0.60,-0.15,-1.43,-0.88,-0.75,1.12,-1.29,-0.00,-0.67
"ex2654",-0.74,-2.48,1.88,0.21,0.65,2.82,5.10,4.24,5.34,5.50,3.16,3.81,1.40,1.30,-0.18,2.27,-0.55,-1.11,-0.99,-1.12,0.40,-1.69,0.48,0.50,-0.02,-0.86,0.10,2.44,0.09,-0.13,-0.14,0.03,1.74,-0.94,-0.17
"ex2655",-0.90,-0.71,1.74,1.14,0.22,0.71,1.88,1.21,3.00,2.00,3.63,3.75,4.68,4.58,6.25,3.70,0.97,1.74,0.40,0.37,-0.41,-0.72,-0.12,1.72,-2.39,0.25,1.58,1.34,2.04,0.42,0.31,-0.37,1.06,-0.35,1.75
"ex2656",0.13,0.06,-1.08,-1.15,1.18,0.65,1.85,2.13,3.33,6.17,5.65,2.75,4.25,2.33,1.32,-0.61,0.75,-0.87,1.48,-0.40,-2.56,0.81,0.64,0.43,-0.41,0.80,-0.73,0.96,-1.61,-0.01,0.19,-1.81,0.43,-1.60,1.03
"ex2657",-0.11,0.93,2.39,0.79,0.97,1.70,1.41,2.72,3.11,5.04,5.33,3.78,3.38,3.00,1.18,3.01,0.61,0.69,-0.88,1.58,-0.81,0.77,0.31,0.25,1.73,-0.71,-1.60,-1.84,0.78,-1.60,-0.91,-1.29,-1.31,3.01,0.59
"ex2658",-2.15,-0.29,0.97,1.50,0.44,4.09,3.13,2.40,2.26,0.20,1.96,0.31,0.48,-0.70,2.21,0.75,2.37,0.59,1.28,0.05,-1.56,-0.13,-0.56,0.16,-1.44,0.47,-0.09,0.92,0.58,-0.03,-0.35,0.23,-0.66,-2.43,0.66
"ex2659",0.84,-0.31,-0.62,-1.81,0.32,2.79,0.44,2.24,1.42,2.30,2.81,4.21,3.70,3.75,2.74,2.18,2.94,2.36,0.75,0.87,1.08,-0.47,0.06,-0.05,0.63,1.18,-0.39,0.80,-0.07,-0.05,-0.07,0.01,0.33,-1.17,1.52
"ex2660",0.45,0.79,2.46,3.15,3.92,3.80,4.88,3.87,4.36,2.68,2.18,3.08,2.34,1.88,-0.17,1.88,0.94,-0.47,-0.00,0.03,-1.05,-0.94,0.22,-0.50,-0.58,-0.45,-0.68,1.70,0.29,0.20,-2.00,-1.37,-0.19,0.39,1.00
"ex2661",-2.51,-0.59,1.45,-1.97,1.86,0.73,0.47,1.18,1.49,2.65,4.53,4.26,3.35,4.08,4.40,4.06,3.12,2.61,0.76,1.64,-1.36,1.38,-0.15,1.24,-0.86,0.67,0.09,0.77,1.65,-0.09,0.94,-1.53,-0.62,-1.33,0.28
"ex2662",-0.62,0.07,-0.34,0.69,0.08,0.80,2.14,2.36,3.14,6.02,5.12,4.28,1.63,3.45,3.20,2.65,0.67,1.04,0.64,0.12,-0.65,-0.55,-0.26,0.39,-0.52,0.15,1.92,-1.78,-0.93,-2.09,-0.06,0.52,-0.47,1.46,-0.23
"ex2663",2.31,-0.95,1.02,1.01,0.23,-0.56,1.52,1.68,3.18,3.90,5.39,5.34,3.96,6.66,4.36,3.29,1.84,0.61,2.94,-0.36,0.82,-0.01,-1.29,-1.01,-0.30,-1.09,0.36,0.25,1.31,-0.43,-0.75,0.66,0.56,-0.57,-0.70
"ex2664",-1.24,-0.39,0.91,0.52,-1.41,1.60,1.09,-0.38,0.35,2.44,5.03,4.60,3.13,4.95,3.93,3.24,3.41,1.33,-0.09,0.84,1.41,0.42,1.22,0.18,-1.22,2.31,-0.66,-1.61,-1.51,0.11,-0.73,-0.62,-0.24,-0.04,-1.08
"ex2665",0.45,0.40,1.70,2.83,4.23,3.33,5.97,4.49,3.22,1.58,0.73,2.33,2.09,-0.71,2.27,1.89,-0.38,0.96,0.89,0.11,1.05,-0.80,0.16,2.50,-0.22,0.85,1.03,-0.76,0.48,0.21,-0.94,-0.38,-0.24,-0.10,0.53
"ex2666",1.64,0.45,1.63,1.76,2.38,5.78,4.12,3.94,3.34,2.66,2.71,2.92,-1.06,1.27,0.51,-2.83,0.15,0.74,-0.33,-0.01,-1.45,-1.39,-0.01,0.35,-0.91,-0.37,0.95,0.14,-1.78,0.69,-0.66,0.41,-0.41,-1.70,-1.72
"ex2667",1.10,-0.97,2.64,-0.89,2.11,2.46,3.82,1.08,2.03,1.63,1.43,1.00,2.05,1.39,3.30,3.36,1.66,0.51,1.12,0.72,2.20,0.96,-1.20,1.34,-0.38,-0.47,-0.23,-0.33,-0.93,-0.67,0.18,1.31,-0.17,-1.06,-1.32
"ex2668",1.10,-0.02,0.86,-0.52,-0.93,0.26,2.33,2.55,2.14,5.17,1.41,5.37,5.25,2.49,3.10,1.48,0.50,1.78,-0.15,-0.71,1.58,0.33,0.84,-0.32,-0.31,1.37,-0.19,-2.01,0.95,-0.06,1.03,-1.05,1.02,0.77,-0.55
"ex2669",-1.17,-1.68,-0.14,-0.44,0.47,0.04,1.61,3.76,1.09,1.83,5.11,5.17,4.20,1.79,1.28,1.85,1.54,0.55,0.56,-0.20,0.37,-1.29,-1.24,0.16,-1.48,-0.09,0.01,1.20,0.46,-0.53,0.21,-2.09,-0.30,-3.09,0.35
"ex2670",-1.17,-1.24,-1.06,1.87,3.69,5.13,4.03,3.35,3.45,1.47,0.90,2.18,0.35,2.37,0.02,1.88,1.91,0.86,0.57,0.44,1.39,-1.58,-0.24,0.43,0.88,0.88,0.34,-0.66,-2.08,-1.06,0.05,0.77,0.23,0.49,-1.17
"ex2671",0.34,0.60,0.34,-0.84,0.98,1.84,1.13,1.19,4.80,3.99,5.25,3.06,5.05,4.16,3.27,4.14,2.55,0.58,1.83,-0.08,1.14,-1.20,1.09,-1.10,-1.08,0.25,-1.27,-1.26,0.76,2.07,0.08,-0.60,-0.77,-0.81,0.11
"ex2672",-1.64,0.01,-0.96,1.05,1.14,0.37,0.92,0.44,1.23,3.41,6.77,5.80,3.19,3.60,5.47,2.64,0.64,0.17,0.97,1.74,-0.19,-0.98,0.90,-1.26,0.60,-0.12,0.80,0.60,1.39,-0.93,1.10,0.70,-1.51,1.88,0.50
"ex2673",-1.29,1.02,0.23,2.28,1.89,1.95,4.14,0.66,1.06,0.48,2.93,2.55,0.96,3.21,3.86,2.91,0.07,-0.55,1.27,1.32,-0.85,0.58,0.07,0.60,0.53,-2.06,1.09,-0.70,-0.77,-0.77,0.69,0.23,-0.94,0.97,1.23
"ex2674",1.50,0.10,0.96,0.26,0.84,2.17,4.13,2.17,2.19,1.14,2.43,3.17,4.07,1.34,1.59,1.70,1.35,0.93,1.09,1.51,0.84,-0.98,-0.52,-0.34,-0.31,1.20,0.98,2.16,-0.17,-0.40,-0.17,0.92,-0.13,-0.24,1.75
"ex2675",0.24,-0.97,2.79,1.16,4.53,4.23,4.88,4.32,3.31,4.53,2.76,1.07,2.61,0.92,0.20,1.06,-0.83,-0.37,-0.71,0.88,-0.03,1.03,1.86,0.51,-0.43,-0.35,2.59,0.72,0.82,2.26,-0.03,0.29,0.24,-0.83,-0.01
"ex2676",1.10,-0.19,0.36,2.20,2.83,1.64,1.68,3.63,1.87,3.55,1.56,1.34,2.68,3.42,1.82,0.56,2.46,-0.01,1.56,-0.30,-0.95,-1.46,0.77,0.28,1.25,-0.94,-0.79,-2.83,1.58,-0.99,0.29,0.26,-0.04,0.57,0.18
"ex2677",-0.11,1.31,0.24,2.02,2.49,2.80,2.72,4.44,3.34,1.78,3.19,2.63,0.74,1.90,2.67,3.00,1.11,-0.15,3.38,0.10,0.99,1.51,0.33,-1.43,1.60,1.82,-1.11,0.68,-0.87,0.45,0.62,-1.49,1.01,-0.55,0.80
"ex2678",0.34,0.15,0.53,1.87,3.56,5.96,5.52,4.54,3.21,3.86,1.03,0.78,-0.03,1.20,1.55,2.32,0.52,-0.63,0.06,-0.42,-0.46,-1.46,0.50,0.93,-0.96,0.71,0.60,0.17,-0.90,-0.71,-0.00,-2.00,-0.34,1.74,0.57
"ex2679",-1.05,-0.78,0.80,0.94,1.68,3.61,3.14,4.06,5.20,2.90,3.25,3.25,1.32,-0.01,0.81,-0.47,0.73,-1.16,0.87,-0.24,-0.12,-0.65,-0.23,1.41,0.31,-0.73,-0.78,-0.56,1.31,-0.11,-1.04,-1.02,-0.97,-1.42,0.50
"ex2680",0.24,0.71,2.47,2.14,1.47,2.30,3.95,3.12,4.20,2.58,3.63,4.83,1.80,2.46,1.11,0.29,0.26,0.11,0.07,1.01,0.20,1.21,1.15,-0.78,0.57,1.11,-0.22,0.39,-1.24,0.45,0.74,0.39,0.28,1.23,-2.24
"ex2681",-1.11,2.56,1.79,2.23,5.58,4.61,5.29,3.31,2.43,1.52,3.17,0.23,1.42,-1.21,-0.52,-0.17,0.68,-0.50,-0.45,0.03,-0.02,-0.43,0.14,0.48,0.08,-1.99,-0.35,0.95,-1.44,0.51,1.32,1.34,0.14,1.51,-0.02
"ex2682",0.14,0.97,1.19,-0.03,1.05,1.67,2.66,2.69,3.48,5.14,5.17,3.31,4.56,3.00,2.67,0.27,0.13,0.84,-0.63,1.65,0.46,-0.96,-0.16,0.24,0.15,0.99,-0.16,0.81,0.75,-0.20,0.16,-1.33,1.38,-0.41,-0.29
"ex2683",0.74,0.04,2.62,1.85,3.29,4.89,6.22,4.54,3.90,4.02,2.36,1.77,1.45,1.69,-0.21,-0.64,-0.09,-0.78,1.21,0.23,2.15,-0.58,0.02,0.28,0.77,-1.93,0.65,0.20,-0.29,-0.55,0.20,0.23,0.36,2.61,0.58
"ex2684",0.34,-1.65,1.55,3.05,6.31,4.50,4.61,5.19,3.03,2.89,3.23,2.06,0.06,2.14,2.22,1.68,-0.46,1.70,0.08,-1.08,0.36,1.05,0.34,0.59,-1.21,0.11,1.58,-0.13,-0.81,0.43,-0.37,-0.39,-1.61,0.23,1.55
"ex2685",-0.97,-0.02,0.88,2.60,3.14,3.52,6.55,4.19,2.62,3.96,2.58,2.68,1.63,3.28,0.73,1.85,2.98,-0.07,2.12,0.01,0.44,-0.80,0.83,-1.38,-0.56,-1.12,-0.14,1.11,1.50,-1.58,-2.44,-1.67,0.15,0.09,-2.26
"ex2686",-1.07,-0.15,0.25,-0.48,-0.59,0.44,0.58,1.52,2.04,1.43,3.70,2.72,4.75,3.94,3.11,3.87,2.29,-1.25,2.61,1.45,0.40,0.14,0.63,0.54,-1.87,0.63,1.63,-0.23,-0.54,-0.81,0.94,-0.83,0.65,0.67,0.93
"ex2687",-1.59,1.91,0.54,0.83,0.10,1.33,2.76,1.12,2.38,3.01,5.07,4.07,4.69,3.33,3.05,3.38,2.54,2.88,0.32,0.83,1.28,0.21,1.39,-1.88,0.45,0.83,-0.31,0.04,-1.28,-1.22,-0.91,-1.32,0.93,-0.42,-2.42
"ex2688",-0.10,1.30,0.54,0.71,1.41,1.23,3.27,0.96,2.84,0.36,2.89,2.49,2.59,3.42,1.62,2.13,1.21,1.28,1.53,0.92,1.60,1.53,1.43,-0.31,-1.24,-0.18,-0.83,-1.11,0.34,0.93,0.65,0.24,0.03,-1.14,-1.17
"ex2689",0.48,0.50,-0.44,2.25,-0.30,0.15,1.37,4.13,4.15,4.61,4.54,2.90,3.35,3.57,2.10,2.02,0.89,-0.55,0.05,0.23,-0.03,0.23,-0.88,-0.60,-1.14,-0.14,-1.20,-0.76,-0.17,-0.72,-1.22,1.20,-0.83,-1.38,-0.83
"ex2690",1.36,0.51,-1.46,0.28,-1.70,-0.66,1.37,2.45,3.02,2.28,2.92,3.68,2.30,4.25,2.45,2.95,1.98,2.27,-0.16,1.42,0.36,-1.50,-1.10,0.39,-1.07,-0.57,-1.39,-1.05,-0.17,0.37,0.92,2.79,0.23,0.28,0.56
"ex2691",0.45,-0.87,0.30,0.77,2.80,1.98,1.85,3.55,1.00,2.56,0.91,0.53,2.06,3.18,3.65,2.91,2.71,-0.26,2.83,2.89,0.26,0.10,0.38,1.41,-0.60,0.88,0.80,1.52,0.03,-0.65,0.54,-0.54,0.26,0.56,0.98
"ex2692",0.37,1.58,1.86,4.96,3.97,3.22,3.71,4.09,4.34,3.49,1.13,1.40,-1.50,0.49,-0.54,1.77,-0.71,0.69,-0.05,0.67,0.43,0.92,1.82,1.38,0.89,1.89,-0.15,-0.22,-0.33,0.09,0.33,0.76,0.75,-1.82,-0.97
"ex2693",1.31,1.14,0.77,2.94,1.55,1.36,2.68,3.65,2.39,2.94,2.78,2.42,1.49,0.93,2.26,4.53,0.30,1.41,2.49,-0.39,0.36,-0.80,1.35,0.61,-1.54,-0.41,1.67,-0.76,0.96,-0.18,0.35,-0.56,1.48,0.83,0.71
"ex2694",-0.02,0.53,2.66,3.96,3.92,5.57,5.41,2.06,3.58,2.08,1.93,2.11,-1.32,-0.39,0.17,2.42,0.91,-0.19,-0.06,1.35,0.27,-0.71,0.06,-0.26,0.14,0.11,0.01,0.53,-0.06,-0.06,-0.18,0.22,-0.52,0.16,0.22
"ex2695",-0.27,1.00,2.10,1.53,3.45,5.73,5.48,3.09,2.27,1.19,0.87,2.69,0.93,1.89,1.41,1.17,2.92,-0.03,-0.02,1.03,-1.33,-0.67,-1.64,-0.04,0.34,0.13,-0.07,0.39,0.45,0.81,-0.71,-0.52,1.92,1.49,-0.46
"ex2696",1.08,0.70,-0.32,0.50,-0.89,0.12,1.20,1.30,-0.52,1.32,3.03,3.23,4.09,4.97,6.32,3.27,3.11,1.34,0.78,1.52,0.21,1.34,-0.47,0.09,-0.17,0.96,0.64,1.90,2.64,1.39,-1.44,0.64,0.61,-1.54,0.07
"ex2697",-1.04,2.35,-0.39,2.50,-1.32,-0.25,3.59,6.22,4.86,3.08,3.17,4.39,2.11,3.64,1.83,1.52,-0.06,-0.30,-0.09,0.17,-0.18,0.08,-0.05,-0.29,-0.84,-0.22,-0.31,-0.97,2.06,0.15,-0.38,0.26,-0.60,-1.28,-0.75
"ex2698",0.24,0.00,-0.53,1.01,-0.04,2.26,2.25,2.03,2.54,3.65,4.62,3.36,4.62,4.70,3.51,1.73,0.77,2.72,-0.97,1.63,-1.15,-0.42,-1.12,-0.33,-2.03,0.81,0.59,0.63,-0.56,-0.92,1.15,0.15,0.88,-0.07,0.94
"ex2699",-1.42,0.15,1.15,1.59,-0.40,0.94,1.80,-0.10,2.87,3.24,2.22,3.92,4.02,3.84,2.70,3.07,2.19,3.62,-0.31,0.26,1.78,0.09,0.90,-0.25,1.34,0.59,0.75,-0.13,-0.73,-0.03,-0.78,0.48,-2.29,-1.71,-0.18
"ex2700",1.10,2.10,0.56,2.59,4.22,1.69,6.66,3.97,3.92,2.22,0.85,-0.87,0.39,1.61,1.72,0.14,2.30,1.05,0.64,-0.45,-1.59,-0.45,1.22,1.31,-0.61,1.26,-1.90,-0.12,0.47,0.85,-0.07,0.81,-0.36,-0.92,0.02
"ex2701",0.94,-0.90,1.51,-0.08,-0.70,-0.54,0.75,-1.23,1.14,2.23,2.15,2.41,3.26,5.27,4.24,5.63,3.12,3.30,3.46,2.68,0.64,0.61,0.71,0.40,0.64,-0.06,0.43,-0.49,-0.45,-0.64,-0.37,0.33,1.10,0.37,2.21
"ex2702",-1.92,-0.36,0.86,1.94,-0.36,-1.21,3.33,-0.74,-1.08,0.87,3.27,2.24,4.15,3.81,5.36,2.56,1.60,2.64,1.59,1.52,-0.37,-0.40,0.09,-0.05,-0.28,0.03,-1.33,1.18,-0.39,1.59,0.59,1.69,-1.07,-0.23,0.38
"ex2703",0.48,0.66,1.99,0.41,2.86,3.27,4.35,3.70,5.21,4.75,2.11,1.60,3.18,1.71,1.87,-0.71,0.16,-0.49,-0.24,2.21,-0.25,1.48,2.08,0.88,-0.39,-0.68,1.19,-1.50,-0.17,1.03,-0.19,-0.04,1.25,-0.52,1.74
"ex2704",0.03,0.19,-1.59,0.44,-0.42,0.58,-0.17,1.21,-0.75,0.60,1.80,2.12,3.60,4.54,4.20,2.31,4.07,3.85,2.14,0.87,-1.65,1.32,1.40,-1.01,0.58,-0.62,-1.35,-0.07,-0.88,0.64,0.16,0.59,0.63,0.19,-0.68
"ex2705",-0.15,-0.29,2.04,1.26,0.60,-0.91,1.09,2.53,4.49,3.16,5.74,6.80,0.75,3.73,2.24,1.50,0.92,0.69,-0.86,0.26,-1.53,0.51,1.85,-0.20,1.87,0.15,1.42,1.26,1.30,1.24,-1.24,0.37,-0.20,-0.52,-0.62
"ex2706",0.50,-0.65,-0.83,0.76,-0.75,0.79,0.09,-0.82,-0.09,1.82,2.27,1.70,3.40,5.39,6.59,3.39,3.00,3.83,2.20,0.21,-1.52,1.69,0.40,-1.35,0.27,-0.19,0.88,0.62,0.55,0.48,1.23,-0.54,-0.21,0.45,-1.19
"ex2707",-0.63,-0.90,-0.64,3.16,1.74,3.41,3.89,3.95,0.54,1.90,1.38,1.80,1.89,3.12,2.84,4.45,0.88,2.72,0.99,1.21,-0.88,0.49,1.45,-0.46,-0.58,-0.62,0.97,-0.74,-1.22,-1.38,2.09,-0.78,1.23,-0.89,0.17
"ex2708",0.69,0.31,0.74,3.84,4.27,4.91,5.91,4.52,4.45,2.99,2.00,2.06,-0.48,-0.18,0.77,-0.63,-0.59,0.40,-0.66,0.65,-1.18,-0.79,-2.49,1.26,-0.62,-0.63,0.09,0.29,1.19,-2.83,-0.17,0.78,-1.90,0.40,0.63
"ex2709",0.22,0.94,-0.21,0.31,0.46,0.16,1.59,1.94,3.95,1.94,4.15,2.26,4.80,4.92,5.00,3.63,-0.24,0.94,1.61,0.84,-0.07,-1.68,0.38,-2.11,-0.58,1.39,-1.27,-1.18,-0.39,0.07,-0.26,-0.26,0.71,-1.03,-1.08
"ex2710",0.22,2.34,0.91,1.46,1.12,0.65,1.98,1.43,0.71,2.20,0.77,1.86,2.16,2.09,3.69,4.77,2.76,4.03,1.37,-0.35,0.24,0.23,0.69,-1.76,0.51,-0.11,1.38,1.11,-1.82,-1.91,0.33,0.17,1.05,0.80,-1.08
"ex2711",1.78,-0.90,0.11,2.86,0.56,1.78,3.47,3.86,3.22,4.02,4.22,3.42,0.44,0.85,0.95,2.40,-0.04,-0.11,-0.42,1.14,0.53,0.77,-0.31,-1.99,-1.03,-1.07,0.01,0.31,0.51,-1.13,-0.38,1.06,-0.34,-0.27,0.66
"ex2712",0.35,1.12,-0.34,0.03,1.83,3.14,4.05,2.01,4.88,4.67,4.51,4.20,4.80,3.44,3.56,-0.22,-0.15,-0.59,-0.36,-0.46,-0.23,0.07,-1.39,-0.86,-0.00,-0.17,0.97,-0.17,0.56,0.20,0.01,0.51,-0.01,-1.68,0.83
"ex2713",1.72,2.12,-0.47,2.89,2.15,3.46,4.88,3.33,3.40,3.53,5.69,3.58,3.08,2.36,0.94,-0.59,1.55,0.55,1.42,-0.93,0.36,-1.20,0.52,-0.62,-1.03,-2.09,-2.64,-1.02,1.21,1.78,-0.34,-1.29,0.83,0.01,0.05
"ex2714",0.84,-0.06,1.30,0.12,1.02,1.62,2.23,2.84,5.06,4.56,6.21,4.64,4.66,-0.06,1.51,0.54,0.11,-0.68,0.91,-0.62,1.26,-0.28,-0.15,0.35,0.83,0.70,-0.54,0.90,0.18,-0.45,0.10,-0.74,0.69,-0.05,-0.07
"ex2715",-2.15,0.98,1.71,1.72,3.72,3.26,5.31,4.98,2.06,4.77,2.22,0.39,1.01,2.08,0.38,1.51,-0.98,-0.90,1.50,0.22,1.32,1.27,-0.25,-0.10,-0.05,-0.12,0.29,1.26,-0.82,0.36,-0.39,1.05,0.75,0.97,0.97
"ex2716",-0.56,-0.15,-1.16,2.76,1.34,3.77,5.90,4.36,2.80,3.35,4.04,1.56,0.29,2.50,0.02,0.03,1.29,-1.02,0.33,-0.06,0.43,1.00,-0.18,0.25,-1.37,0.05,-0.55,-0.12,-0.74,-0.94,0.14,0.38,-0.01,0.24,-1.24
"ex2717",-0.42,0.40,-0.52,0.75,2.55,1.33,4.68,3.28,4.10,3.08,3.63,3.31,2.32,0.93,1.82,0.78,-0.01,0.73,-1.03,-0.25,0.97,1.66,-0.35,-0.11,-1.01,0.12,-0.61,-1.08,-0.41,0.54,-0.02,-0.17,0.07,1.18,-0.95
"ex2718",0.03,1.08,1.22,0.83,4.01,2.75,5.77,3.15,1.61,2.07,3.48,2.36,0.63,3.00,3.19,2.98,0.40,0.14,-0.11,-0.14,0.01,-0.81,0.42,0.41,-1.15,0.51,0.46,-1.34,-0.99,0.36,0.17,-0.82,0.07,0.55,0.54
"ex2719",0.69,1.80,0.60,0.91,0.59,1.02,1.94,2.26,-0.14,1.36,0.08,1.74,4.00,3.30,4.73,3.49,1.70,3.03,1.71,1.07,-0.35,-0.11,-0.22,0.38,1.23,2.42,0.60,0.47,-0.63,2.28,-1.15,-1.16,0.43,0.38,-2.37
"ex2720",1.60,1.26,0.26,2.07,3.22,2.70,5.17,4.88,3.30,4.94,2.70,1.59,-0.30,0.14,0.38,-2.51,-0.00,1.46,0.24,-0.21,-0.76,1.14,0.43,-1.20,0.84,0.04,-1.63,-0.98,0.17,-0.78,0.51,-0.51,-0.06,-0.36,-0.90
"ex2721",0.27,-0.11,1.47,2.49,1.37,4.06,4.19,3.57,5.00,4.63,5.09,3.35,3.66,3.65,0.74,-0.11,0.41,-0.75,-0.00,-0.34,1.34,-0.44,-0.77,-0.44,1.80,-0.21,-0.28,-0.90,-1.19,2.40,0.27,0.12,-1.58,-1.92,0.50
"ex2722",-2.61,-1.59,1.90,0.35,-1.97,3.37,4.78,5.24,3.65,3.73,5.33,3.94,4.30,3.75,2.21,0.36,-0.57,0.19,-1.01,-2.36,0.14,0.31,0.58,-0.38,3.21,1.06,0.33,-0.98,-0.70,0.71,2.79,1.21,0.43,0.37,-0.59
"ex2723",0.27,0.89,2.59,2.49,3.45,3.37,5.90,5.67,5.39,2.96,2.52,1.75,0.46,0.31,-0.40,-0.21,-0.17,-0.56,-0.46,-0.04,-0.72,0.22,-0.99,-1.42,-1.29,0.77,-0.69,0.16,-1.42,-0.64,-0.92,-1.64,0.50,-0.91,-0.53
"ex2724",1.46,0.60,1.42,2.31,1.22,2.29,4.46,4.35,5.64,4.72,6.33,5.03,4.00,2.38,2.77,1.13,-0.97,-0.10,0.34,-0.43,-2.30,-1.61,0.71,-0.76,0.00,0.27,-1.20,-2.01,-0.09,1.06,-0.30,0.80,2.09,0.32,-0.28
"ex2725",0.63,0.06,0.43,-2.67,-0.49,0.27,1.30,2.65,3.07,4.28,5.72,2.49,3.61,3.45,2.30,1.85,0.55,-0.73,1.71,-0.99,-0.46,0.62,-0.84,-1.19,-0.43,0.67,0.50,-0.36,-0.74,0.74,1.14,-1.51,0.18,1.30,0.08
"ex2726",0.38,-0.54,1.75,2.35,2.55,4.08,4.02,4.15,4.00,3.28,2.49,0.83,2.84,2.26,1.12,3.10,1.92,0.31,1.87,-2.35,0.74,1.43,-0.69,-0.19,0.95,-1.70,0.18,-0.05,1.03,-0.86,-0.10,-1.10,0.70,0.46,-0.06
"ex2727",-1.33,-0.68,0.50,-1.74,-1.17,1.18,2.24,3.12,4.66,4.05,5.37,4.92,5.59,4.57,2.74,2.26,0.77,-1.27,-0.24,-2.47,-0.63,-1.12,0.68,0.54,1.33,-1.62,-0.17,-1.23,-0.12,-0.61,-0.38,-0.02,0.20,-2.44,0.18
"ex2728",0.40,1.57,1.43,1.65,3.32,3.63,5.55,2.75,2.61,4.03,2.95,0.13,1.35,1.24,-1.79,-0.27,1.48,0.94,1.83,-0.30,0.13,0.10,-1.96,1.13,-1.05,-0.80,-0.48,-0.10,-0.69,1.65,-0.19,0.52,0.37,1.23,1.46
"ex2729",0.81,0.52,0.09,2.75,2.79,3.75,4.74,4.73,3.34,3.37,5.26,3.83,0.32,1.31,1.82,1.36,-0.68,0.65,-0.70,0.58,-1.18,-0.32,0.18,0.01,-1.16,1.20,-0.40,0.58,-0.58,0.54,0.88,-1.45,-0.37,0.50,2.05
"ex2730",1.29,0.27,0.22,1.24,0.77,-0.31,0.73,2.76,4.99,3.72,3.58,5.92,3.43,2.66,2.60,1.72,1.78,0.86,0.62,1.73,-0.06,-1.15,-0.76,-1.53,-1.18,-0.56,0.72,-0.12,0.26,-1.00,1.46,-0.58,-0.03,-0.20,-0.18
"ex2731",0.92,1.38,0.45,1.32,1.45,-0.73,0.04,-0.20,0.38,3.27,1.12,2.89,1.95,4.87,4.12,5.59,1.29,4.07,2.16,0.07,0.84,0.41,0.32,1.68,-0.76,-0.64,-0.32,1.03,0.80,0.12,0.96,0.74,-0.96,1.38,0.11
"ex2732",0.36,3.23,0.73,2.14,3.00,5.89,6.39,4.61,3.62,0.94,1.31,1.85,0.69,1.24,1.70,0.75,1.94,-0.01,0.70,0.62,1.76,-0.84,-1.22,-0.06,0.81,1.79,-0.42,1.15,0.98,-1.38,1.77,-1.30,-0.84,1.17,1.02
"ex2733",1.50,0.56,-0.42,0.23,-0.65,0.23,0.03,2.48,4.53,3.99,5.98,5.25,5.89,1.89,3.64,1.65,-0.09,0.92,-0.74,-0.90,1.54,-0.93,1.70,0.39,-0.59,-0.27,-0.32,-0.60,-0.10,-0.87,-0.60,-1.12,0.81,0.80,-0.95
"ex2734",-0.44,0.12,1.43,0.82,1.96,-1.11,0.34,1.55,1.67,4.63,3.91,5.42,3.09,3.55,2.87,2.24,1.71,-0.79,0.23,0.18,0.21,1.71,2.07,1.40,-0.09,0.93,-0.50,-0.10,0.59,0.25,0.59,-1.13,0.34,0.53,-1.28
"ex2735",0.01,0.92,0.34,0.64,0.38,1.55,1.37,1.95,1.81,-0.27,2.51,2.89,1.63,3.42,5.34,4.08,3.94,0.82,1.81,-0.56,0.75,-0.10,0.17,0.57,-1.71,-1.41,-2.25,-0.59,-1.46,-0.44,-1.07,0.46,-0.30,1.39,0.72
"ex2736",-0.03,0.13,1.83,2.62,4.11,3.93,4.72,4.05,3.96,3.97,3.34,2.31,1.23,0.58,0.73,-0.20,-0.45,-0.05,0.29,-0.44,1.66,0.33,-2.07,1.42,0.19,0.57,0.53,0.33,0.68,0.15,-0.03,0.05,-0.08,0.06,-1.77
"ex2737",-0.21,-1.17,1.28,2.66,3.69,4.06,5.37,4.49,5.06,2.92,1.46,1.06,-0.00,-1.45,0.02,-1.34,-0.05,-0.85,2.06,-0.56,-2.19,0.79,-0.51,-0.90,1.01,-1.58,0.34,-2.48,0.15,-0.44,-0.09,-0.63,-0.39,0.89,-1.36
"ex2738",0.21,-1.13,-0.13,0.03,-1.73,0.75,0.05,-1.19,0.10,1.53,4.09,4.46,4.29,3.93,3.47,3.01,2.14,4.69,2.13,-0.86,0.24,1.13,-0.89,-1.23,0.15,-1.18,-1.03,1.07,-2.08,-0.93,0.01,1.57,-1.50,0.17,-0.50
"ex2739",1.52,-1.33,-0.45,0.53,0.44,-1.19,1.19,2.97,2.01,2.23,3.57,5.04,3.86,3.37,4.95,2.34,3.22,2.19,-0.44,0.70,0.58,0.09,0.56,-0.37,-0.12,-0.26,-1.12,1.10,1.25,0.23,-1.00,-0.08,-0.72,-0.71,0.36
"ex2740",1.26,-1.16,2.20,0.64,1.12,2.78,3.04,4.20,5.37,4.30,5.95,4.34,2.44,2.86,1.93,-0.83,-0.04,-2.11,0.23,-0.29,0.94,-1.12,-1.35,0.17,0.64,0.09,0.78,-1.54,-1.30,-0.27,0.98,1.87,-0.34,2.25,-0.71
"ex2741",0.22,-0.29,0.87,0.04,-0.56,-1.06,0.17,-0.09,0.10,1.21,2.67,2.88,3.76,4.09,7.31,5.05,4.73,3.30,1.21,-0.04,-0.93,0.17,1.43,-0.84,1.72,1.14,0.96,1.12,1.76,1.62,1.43,1.80,0.24,0.26,0.11
"ex2742",-0.24,0.75,1.01,-0.54,0.59,1.61,0.75,-0.46,0.32,3.49,3.54,2.01,2.87,5.37,6.21,3.94,3.09,2.32,2.37,0.52,0.31,-1.83,1.05,-0.75,-0.89,1.05,-1.38,1.79,1.29,-0.62,-0.59,-0.11,0.67,-0.58,0.56
"ex2743",-2.16,0.21,0.55,1.26,0.11,1.54,0.76,1.74,5.84,2.61,5.35,6.15,5.00,3.57,2.75,1.29,-0.43,0.54,0.90,0.41,0.72,0.27,0.08,0.53,0.36,-0.44,-0.36,-1.70,-0.17,-2.18,-1.29,1.18,1.03,-0.46,-0.22
"ex2744",0.41,1.18,0.45,2.46,0.98,3.32,1.44,0.91,-0.18,-0.41,1.39,0.78,2.30,2.81,3.99,4.37,3.68,3.42,0.53,1.90,-0.03,0.64,-2.58,-0.74,0.29,0.58,0.80,-0.07,0.19,-0.44,-0.90,1.38,1.35,0.36,-1.87
"ex2745",1.20,-2.01,0.33,1.36,-0.68,0.66,0.17,3.91,3.63,5.15,7.06,4.67,4.27,4.25,1.68,1.84,0.67,-1.59,-1.63,0.39,1.01,0.27,-0.10,-0.63,1.02,-1.54,0.04,0.78,0.36,0.22,0.11,-0.85,-0.89,-0.81,-0.79
"ex2746",0.36,-1.13,0.51,-0.18,-0.13,0.59,-1.02,1.24,1.23,0.42,2.52,2.54,4.85,1.92,5.27,3.68,2.75,2.44,2.31,2.06,-0.39,-0.43,-0.41,-0.46,-0.75,1.43,0.65,-1.53,-0.34,1.97,-0.28,1.20,0.65,-0.42,0.87
"ex2747",0.61,-1.23,1.53,0.22,2.71,2.50,4.11,2.01,1.09,2.16,2.22,0.22,2.36,2.83,4.94,1.59,2.70,0.58,0.28,-1.10,0.32,-1.17,1.01,-1.57,1.16,-0.85,-0.99,-0.75,-0.10,-3.45,0.05,-1.23,-0.19,0.98,-0.96
"ex2748",0.41,0.01,1.69,0.56,0.25,0.51,5.15,4.00,3.63,4.99,2.91,4.24,1.95,0.99,1.56,1.30,0.58,-0.57,0.92,0.88,-0.20,-0.85,0.83,-0.82,0.31,0.74,0.76,-1.09,-0.03,0.94,-1.61,-0.52,-0.83,-1.39,0.97
"ex2749",1.02,0.09,0.31,1.87,1.83,1.21,3.01,1.32,1.89,3.10,1.32,0.27,1.41,1.65,5.05,3.81,2.52,2.16,0.90,0.68,-1.81,0.52,1.29,-0.22,0.98,-1.54,-1.41,0.35,-0.95,0.03,0.15,-0.26,1.19,1.36,0.26
"ex2750",-0.79,-1.87,-0.46,1.56,1.55,0.31,2.32,3.06,3.49,3.80,5.12,2.72,3.67,2.04,1.27,2.34,-0.76,-1.26,1.41,-1.76,-1.45,-0.31,-0.40,1.46,0.38,-0.13,0.25,-0.22,-2.27,-1.20,0.11,1.25,-0.86,-0.18,1.62
"ex2751",-0.99,0.64,0.38,1.48,2.90,3.43,3.78,2.91,3.00,3.18,1.07,1.16,-0.21,1.52,0.47,1.12,2.76,1.29,-0.98,1.01,0.28,-0.72,0.88,-0.89,0.09,0.14,1.06,0.77,-0.40,0.44,-0.44,0.91,-0.63,0.42,0.99
"ex2752",1.18,0.38,-1.48,1.71,3.26,1.63,3.31,4.92,2.65,4.86,2.66,3.92,1.57,2.33,1.09,-1.48,1.20,0.19,0.84,-1.06,0.57,1.91,0.99,-0.66,-0.56,-0.21,0.38,-0.54,0.60,-1.59,-0.50,0.09,-0.15,-1.16,1.39
"ex2753",-1.27,-0.65,0.89,4.35,4.94,4.23,5.57,4.35,3.85,2.63,3.66,1.84,-1.87,1.03,1.24,1.32,0.09,-0.78,-0.66,0.78,-0.36,-0.34,0.21,-1.06,-0.40,0.08,0.70,-0.56,0.56,0.53,0.10,-0.09,0.07,-0.83,-1.53
"ex2754",-0.98,0.18,0.98,-1.78,0.73,0.66,-0.94,2.68,2.10,1.46,3.66,3.78,4.09,4.10,4.42,2.84,1.79,0.90,1.85,0.21,0.45,-0.02,1.37,-1.79,0.06,0.73,2.14,-0.70,-2.04,-0.77,0.72,0.34,-0.37,-0.04,-0.48
"ex2755",-0.04,-0.28,-0.97,1.93,1.64,2.83,3.58,3.07,3.48,2.95,3.26,3.36,1.70,1.35,0.60,0.98,0.97,2.26,-0.24,0.06,0.34,0.95,1.54,-0.44,-1.38,-0.97,0.25,-1.66,-1.69,1.12,0.76,-1.06,0.71,1.32,-0.84
"ex2756",-0.26,0.05,-0.04,-1.92,-0.17,-0.27,1.38,1.36,2.17,3.25,2.34,2.15,2.57,4.72,5.01,4.39,4.46,1.71,0.63,1.59,-1.62,-0.68,1.03,0.26,-0.77,0.27,-1.04,-1.02,0.73,1.37,-1.01,-0.01,1.42,0.82,-0.27
"ex2757",-0.33,2.45,1.27,2.28,2.98,2.87,4.89,3.87,1.93,2.66,0.85,0.85,1.10,1.40,0.83,0.37,-0.10,0.50,-0.16,-0.96,-2.18,1.04,-0.91,-0.16,1.20,-0.40,0.33,0.17,-1.97,1.08,-0.23,0.73,-1.53,0.81,0.82
"ex2758",0.26,-1.48,0.20,1.82,-0.47,3.27,2.56,3.98,3.15,5.87,4.38,3.86,4.19,1.14,3.18,-0.10,1.21,-0.73,-1.26,-0.92,0.32,0.57,-0.16,-1.21,-2.55,-0.17,-1.57,0.65,-0.93,0.12,-0.15,0.55,0.16,0.38,1.64
"ex2759",1.83,0.79,1.97,2.69,1.34,3.26,5.11,4.82,2.82,3.44,2.79,2.94,1.49,1.27,2.16,-1.22,1.37,0.58,-0.09,-0.98,-0.89,0.01,-1.43,-0.88,-1.42,-2.13,-0.27,-0.40,-1.19,-1.02,-0.13,0.51,-0.24,1.20,1.14
"ex2760",-0.32,1.69,-0.06,4.04,2.18,2.53,4.48,4.19,2.73,3.11,4.01,1.62,0.63,2.77,0.65,1.33,0.61,0.07,-1.23,0.64,0.53,1.45,1.18,1.64,-1.13,0.01,1.09,1.25,0.50,-2.10,-1.03,0.06,-1.92,-0.39,-0.79
"ex2761",-0.07,-0.10,1.07,2.89,3.74,4.17,5.14,3.13,3.84,2.01,2.54,2.34,0.58,0.19,0.65,0.45,0.24,-0.65,1.69,-0.35,0.85,-1.24,0.58,0.59,-1.56,0.24,0.31,-0.63,-0.11,-0.25,-0.18,-1.07,0.06,0.27,0.97
"ex2762",0.66,3.44,-0.18,1.78,2.83,2.96,5.21,3.18,2.70,0.65,1.84,2.15,2.54,2.67,2.52,2.00,0.42,1.07,3.09,2.28,-2.81,0.91,0.38,-1.36,-0.38,-0.78,0.96,-1.45,1.04,-1.45,-0.55,-0.81,-0.67,-0.61,0.59
"ex2763",1.94,0.25,-0.40,0.02,-0.45,0.59,1.02,-0.92,-0.32,2.14,1.33,1.60,0.46,5.83,5.00,3.43,3.51,2.20,0.75,0.59,-0.34,0.19,-0.21,1.58,-0.96,-0.50,-1.36,1.64,0.55,0.84,-0.58,0.10,0.77,-1.08,-0.48
"ex2764",-1.45,-0.14,2.53,1.30,3.95,4.53,5.44,4.86,4.04,2.56,1.26,0.64,-0.35,-0.15,0.56,0.35,-1.21,-1.22,-0.54,0.87,0.08,0.33,-0.40,-0.09,0.89,-0.03,-0.76,0.43,-0.95,0.52,-0.87,-0.15,-0.70,-0.67,-0.91
"ex2765",-0.49,-3.22,0.07,-1.43,0.25,2.15,2.62,1.09,1.30,3.12,4.88,3.25,4.45,2.82,2.74,3.07,0.38,1.60,1.11,-0.93,-1.22,0.89,0.15,1.37,0.17,0.25,-0.00,-1.04,1.72,-0.09,-0.82,1.30,-1.75,0.85,-1.48
"ex2766",1.30,-0.36,1.58,1.82,1.36,3.39,5.06,3.71,4.09,4.63,3.57,2.05,0.57,1.52,0.39,0.95,1.15,0.53,-1.03,-1.63,-0.09,-0.60,0.29,-0.36,1.34,-1.19,-1.00,-0.33,-2.12,-0.04,-0.28,0.46,1.60,1.56,-0.37
"ex2767",1.78,0.77,-0.03,0.59,0.14,0.83,3.18,1.64,0.45,1.93,2.21,1.32,2.71,3.65,4.37,1.86,3.61,4.41,1.58,-1.01,1.09,-1.41,-0.01,-0.73,-1.26,-0.08,-0.35,-1.23,0.16,0.87,0.14,-0.77,0.14,-0.18,0.98
"ex2768",1.05,-0.88,-1.42,0.98,1.43,-0.80,0.03,0.30,-0.25,-0.02,3.86,4.52,4.93,3.15,7.01,4.44,5.01,2.13,1.19,1.71,-2.59,0.53,2.25,0.77,-0.96,-0.96,0.01,0.20,-0.06,-2.50,0.03,0.07,-1.11,-0.86,1.50
"ex2769",1.28,1.76,1.92,0.74,0.10,0.37,1.13,2.77,3.78,5.07,4.39,4.86,3.31,1.45,1.83,0.64,1.66,0.82,1.25,-0.63,1.44,-0.35,-0.22,-0.28,-0.83,1.19,1.14,1.65,-1.54,1.32,0.51,0.92,0.96,0.66,-0.74
"ex2770",-0.05,-0.24,-0.81,1.17,0.42,1.18,0.96,2.17,3.36,4.84,6.07,3.52,4.34,3.10,4.53,1.20,1.06,-0.64,2.22,0.83,-0.61,-0.57,0.72,0.86,-1.18,-0.40,0.63,0.63,-0.73,-0.86,-1.06,-1.11,-0.62,-0.12,-0.22
"ex2771",-0.04,-0.17,0.14,0.50,-0.09,-0.02,-0.20,1.12,-0.01,1.19,2.75,1.51,5.29,5.49,5.75,3.32,3.25,2.33,2.88,1.35,1.68,0.74,-0.85,-0.96,0.59,-1.11,0.71,-1.73,-2.15,1.23,1.24,0.67,0.01,0.62,0.22
"ex2772",-1.00,-1.59,0.20,0.76,-1.51,-0.42,1.79,0.81,2.93,1.95,3.47,3.35,5.31,3.73,0.57,4.28,1.69,1.82,1.53,0.67,-0.95,-0.85,1.28,3.02,-0.92,-0.36,0.93,0.59,-0.11,0.56,0.53,0.09,-0.31,-1.36,1.75
"ex2773",-0.45,0.84,-0.81,0.30,-0.87,2.73,0.08,0.31,-0.04,2.32,4.44,2.94,5.70,3.37,7.00,6.04,3.46,3.00,1.57,0.52,0.93,1.15,-0.44,2.79,1.04,-0.83,-0.85,-0.32,1.31,-0.52,-0.89,-1.07,-0.79,-2.09,1.19
"ex2774",1.82,3.50,1.91,1.90,2.15,4.02,5.98,3.29,4.04,5.69,2.09,0.61,1.67,-0.69,-0.81,0.56,-1.58,1.01,-1.42,-0.41,-0.60,0.75,1.08,0.70,0.04,-0.45,-1.26,-0.73,0.41,-0.43,-0.49,-1.52,1.50,0.91,-0.52
"ex2775",-0.92,1.87,0.88,0.28,0.34,2.26,2.06,4.69,2.48,3.87,6.33,6.23,3.88,3.40,3.32,-0.73,0.92,1.49,1.81,-1.80,0.04,-1.17,0.66,-0.42,1.74,-0.98,0.39,1.51,2.50,-0.04,-0.64,0.27,-0.03,-0.70,0.16
"ex2776",0.09,-1.40,1.19,0.99,1.33,1.46,3.04,3.58,3.53,4.87,5.56,3.63,0.73,0.19,1.06,0.72,0.01,0.74,1.10,1.20,0.48,1.26,0.04,0.52,1.48,-1.24,-1.04,-1.05,0.18,-0.50,0.48,0.50,0.61,-1.63,0.23
"ex2777",0.80,0.51,1.63,1.63,3.42,2.18,3.49,3.39,2.60,0.82,1.82,-0.01,0.75,2.23,0.56,2.07,1.92,1.45,0.80,-0.47,1.99,-0.93,0.55,-1.66,-0.02,0.07,0.75,-1.36,-0.80,1.60,-0.47,0.20,0.26,-0.18,-0.13
"ex2778",1.69,0.44,1.00,3.66,4.63,4.60,6.53,4.15,2.70,2.56,3.03,1.67,0.23,1.69,0.04,1.84,-0.51,0.06,0.53,-1.09,1.39,-0.33,-2.57,-1.93,0.61,0.56,0.38,1.30,-1.76,0.67,2.32,-0.18,0.67,-0.59,-0.59
"ex2779",0.80,1.26,1.25,1.30,-1.22,0.01,1.67,3.07,1.70,4.50,4.03,4.78,3.70,2.42,3.96,2.61,1.65,-0.35,-0.79,0.86,-2.22,-0.46,0.54,0.77,0.99,0.36,-0.64,1.57,-2.01,0.65,1.86,0.63,-0.08,-0.32,0.24
"ex2780",0.31,0.31,-0.17,-1.23,0.41,0.26,2.78,3.77,4.18,3.64,7.08,3.93,3.95,3.65,2.13,1.75,0.91,0.97,2.52,0.17,0.77,-0.54,0.29,1.39,0.25,0.43,-0.58,1.16,1.12,2.70,0.62,0.47,-1.68,-0.17,2.56
"ex2781",0.17,0.03,2.44,1.78,3.82,6.20,4.91,5.34,3.19,3.21,2.57,2.81,1.17,-0.86,0.91,1.85,-0.74,-0.33,0.30,-0.71,-1.04,0.92,-0.55,-0.44,-0.83,-1.68,0.65,0.62,-0.52,1.03,-1.41,-0.47,-0.01,-2.58,-0.90
"ex2782",-1.13,1.53,1.35,2.94,-1.70,1.46,3.17,1.22,0.86,5.56,5.67,3.96,3.58,3.67,1.02,-0.24,0.00,-1.36,1.26,-0.41,-0.71,-0.16,0.39,1.21,-0.05,-0.32,0.24,0.69,0.59,-2.53,0.31,0.37,0.30,-0.57,-0.18
"ex2783",-1.06,-1.49,1.40,1.91,1.95,4.27,4.09,3.65,5.61,5.20,1.91,4.27,0.71,1.91,0.06,0.45,-1.63,0.47,-0.11,-0.37,0.03,-0.55,2.29,-2.01,-0.04,1.09,0.38,-0.89,-0.78,0.09,0.44,0.14,-0.03,0.72,-0.33
"ex2784",-1.08,1.02,0.09,2.45,3.61,5.22,7.93,3.76,3.26,1.11,2.37,0.31,1.90,0.11,-1.86,0.57,-0.87,0.42,-1.21,-0.89,-0.53,0.28,-0.46,-0.96,-0.13,0.03,1.14,1.30,2.14,0.55,-0.10,0.43,-0.59,0.82,-0.86
"ex2785",-1.71,-0.55,-0.33,-0.23,0.06,0.87,0.35,3.61,2.70,2.11,5.09,4.06,4.12,3.83,4.56,0.65,-0.33,0.92,0.74,-0.72,0.53,-1.41,-1.01,-1.33,-1.05,-0.98,-1.35,1.37,-1.33,0.65,0.80,-2.44,-0.02,2.16,-0.87
"ex2786",-0.63,1.01,1.54,3.35,1.40,2.89,4.04,1.78,3.40,2.17,0.43,0.39,3.02,2.21,0.85,2.29,0.68,2.45,1.33,-0.52,1.15,-1.67,0.25,-1.37,0.22,-0.26,-2.11,0.70,0.36,-0.27,3.23,0.29,0.09,0.02,0.53
"ex2787",-0.95,0.03,0.97,1.16,1.12,2.70,1.61,4.42,0.84,2.81,1.17,2.49,1.19,3.76,2.92,2.07,3.23,1.77,-0.19,0.55,0.44,0.38,1.05,-1.66,-1.24,-0.40,0.59,0.72,-0.55,-0.12,-0.34,1.68,0.51,-0.64,-0.22
"ex2788",1.42,0.77,-0.06,0.69,1.73,0.17,0.79,0.29,0.15,-0.25,-0.88,3.37,4.25,3.48,4.08,4.38,2.90,3.01,-0.17,0.88,0.44,0.76,-1.27,-0.18,1.03,-0.39,-0.21,-0.89,-1.02,-1.36,0.95,-0.61,-0.08,1.39,-1.65
"ex2789",0.49,-0.06,0.65,-1.41,-1.01,1.53,2.85,3.83,3.15,5.73,5.09,5.01,3.46,-0.01,1.08,1.71,0.29,-0.28,0.43,-0.12,0.22,1.55,0.62,-1.58,0.23,0.01,0.37,-0.80,-1.36,-1.44,-1.19,0.73,-0.57,0.96,-0.19
"ex2790",-0.73,0.35,-0.12,0.08,-0.67,-0.09,0.00,1.59,0.90,3.00,2.99,1.82,2.96,3.29,5.77,5.47,3.63,1.92,2.43,1.59,-1.67,2.56,2.00,0.97,1.70,-1.39,0.96,1.09,-0.44,1.38,-0.68,0.50,0.24,1.01,1.17
"ex2791",1.22,-1.28,-1.78,-1.04,-1.62,-0.03,-2.92,0.78,0.62,2.40,2.43,3.30,3.63,5.10,6.19,3.58,2.57,3.43,2.93,1.31,0.62,0.67,1.27,-0.49,-2.10,0.91,-0.71,0.62,0.11,0.86,-0.26,-0.57,-0.44,1.56,-1.32
"ex2792",1.19,0.32,0.06,0.57,2.90,3.19,3.49,3.83,5.30,1.78,3.15,-0.30,-0.29,2.81,3.13,0.44,2.02,1.21,0.64,-0.46,1.36,-0.14,0.72,-1.04,-0.67,-1.40,-0.66,0.39,-0.82,-0.01,-1.09,0.23,0.68,0.86,-0.63
"ex2793",-1.49,0.74,1.55,3.21,4.39,5.80,4.75,5.16,6.68,2.66,1.86,3.17,-0.12,0.52,-0.98,0.81,0.28,1.31,-0.39,0.49,-0.38,-1.23,0.82,-0.21,1.19,1.37,-1.40,-0.94,-0.28,-2.11,-1.41,-0.90,0.40,-0.75,0.43
"ex2794",-3.24,-0.64,2.88,2.94,3.91,4.11,4.91,5.40,5.65,3.18,2.38,1.15,0.62,0.91,0.05,0.18,0.25,-1.46,1.32,-0.48,0.20,0.81,-0.60,0.90,0.24,1.74,0.83,2.00,1.36,-0.54,1.01,0.56,1.90,-0.26,0.21
"ex2795",-0.23,1.28,0.94,1.77,3.28,3.19,4.47,3.98,3.57,2.09,1.91,1.21,0.89,-0.65,1.96,0.68,0.85,2.04,0.79,0.06,0.11,0.41,-1.50,0.65,0.30,-0.70,0.81,-1.15,1.17,0.31,-0.14,-0.34,0.58,-1.36,0.30
"ex2796",-1.83,0.96,1.49,-0.21,1.35,0.02,2.21,2.39,2.24,2.43,3.73,1.23,2.37,4.59,4.79,3.35,2.16,1.59,0.61,2.25,0.38,2.31,-0.09,-0.70,-0.80,1.03,0.16,-0.85,0.16,-2.08,-1.80,-0.85,-0.37,0.45,-0.29
"ex2797",1.01,0.16,0.39,0.49,0.31,2.15,4.51,5.10,4.68,6.27,6.06,3.57,1.85,2.55,0.04,1.90,0.85,2.21,0.58,-0.41,-1.10,-2.11,-0.12,0.94,-0.06,-0.11,1.39,-0.50,0.50,-0.11,-1.83,-0.47,-0.04,-1.51,0.13
"ex2798",0.31,0.24,0.51,2.36,1.05,2.08,3.52,4.83,1.67,3.28,6.18,2.74,1.39,1.03,2.71,-0.12,0.48,-1.28,0.03,1.23,1.19,0.43,-0.48,-0.91,0.24,0.73,0.04,2.17,-1.23,1.96,0.26,1.94,1.64,0.01,-0.57
"ex2799",1.55,1.47,0.58,1.97,2.05,2.02,0.63,-0.48,1.95,0.97,2.28,3.21,2.28,3.97,5.64,3.73,3.34,1.85,2.04,-0.26,0.11,-0.98,0.37,0.61,-0.24,0.80,0.90,1.54,0.79,0.39,0.10,-0.01,-0.54,-0.80,-1.64
"ex2800",-0.05,0.14,3.26,-1.07,-1.88,0.23,1.01,0.54,0.59,0.82,3.56,1.92,4.37,3.44,4.41,4.86,2.63,2.64,1.40,0.03,-1.37,-0.00,0.53,-1.30,-0.33,-2.97,-0.34,0.50,-0.72,-0.11,0.03,-1.17,0.28,1.78,0.88
"ex2801",0.73,1.11,3.35,2.00,4.34,4.38,5.62,6.65,3.28,3.95,3.11,1.18,0.25,-0.50,-0.05,1.24,-1.14,1.30,0.97,1.24,0.45,0.87,-0.96,-0.21,1.38,-0.22,0.04,-1.27,-0.56,-3.37,0.46,0.51,0.66,-0.07,0.16
"ex2802",-0.66,-0.15,-0.43,-0.86,1.33,-0.32,1.46,3.39,4.35,6.68,6.51,5.17,3.43,1.81,0.99,0.81,1.01,0.47,1.78,0.34,1.83,0.19,-0.61,0.13,-1.01,-0.07,-0.16,0.63,-0.74,-1.20,0.50,-0.69,1.26,0.54,-0.52
"ex2803",0.78,0.09,0.53,-0.15,1.00,0.46,-0.40,2.21,0.95,1.37,1.22,2.59,3.95,4.27,4.96,4.82,3.17,4.33,2.22,0.55,0.72,0.73,-0.64,-1.09,1.85,1.02,0.25,-1.09,-0.38,-0.38,-1.57,-0.18,0.18,-1.70,-0.56
"ex2804",-0.20,0.78,2.37,1.32,1.77,2.29,3.40,2.57,2.03,-0.03,2.72,3.41,2.56,2.26,2.55,0.63,2.17,1.90,0.56,0.74,-1.91,0.79,-0.48,0.17,-0.09,-1.22,0.10,1.86,1.00,-0.44,1.28,1.09,1.47,-0.44,0.74
"ex2805",0.49,0.79,1.84,2.25,3.09,4.27,4.52,6.48,5.73,1.38,1.57,-0.03,-0.20,1.56,0.93,-0.63,-0.46,1.05,-0.39,0.54,-0.55,-0.41,0.66,0.79,0.97,-0.56,-1.43,-2.45,-1.60,1.90,-1.55,-0.50,0.01,0.76,-1.98
"ex2806",-1.08,-1.16,3.25,1.78,3.82,3.63,6.86,4.90,4.24,2.47,1.23,2.31,2.73,0.54,-1.01,-0.88,-0.35,0.34,-0.42,-0.21,-0.17,-0.91,0.38,-2.25,0.14,-0.68,1.04,-1.64,-0.92,0.24,0.28,0.72,-0.59,0.74,0.80
"ex2807",-0.45,0.29,-0.52,-0.71,1.57,2.06,0.35,2.15,3.55,4.31,5.65,3.26,2.45,3.86,0.93,-0.42,-0.87,0.92,0.90,-0.06,0.94,0.50,1.25,-0.54,2.26,-1.95,-0.63,0.43,-0.66,1.37,0.56,-0.25,-0.99,0.07,-1.46
"ex2808",-1.05,1.60,1.48,3.22,2.16,3.89,3.76,4.67,3.60,2.79,2.16,3.07,0.61,2.07,-0.18,1.70,-0.05,-0.57,-0.56,0.57,1.15,-0.33,-0.03,1.92,-0.44,1.87,0.81,0.95,0.19,1.18,1.16,-0.26,0.94,0.39,-0.39
"ex2809",0.12,0.83,-0.15,-1.28,1.50,3.26,2.52,3.10,4.15,5.09,3.58,3.72,0.93,3.40,1.24,1.55,0.40,0.48,-1.15,-0.71,1.36,-0.82,-0.45,2.64,1.80,0.83,0.39,-0.14,-0.07,-0.22,0.17,0.31,1.39,0.10,-1.31
"ex2810",0.30,-0.44,-0.60,1.94,0.74,-0.43,0.02,2.55,1.69,1.49,2.36,2.32,5.01,3.39,4.70,2.45,3.17,0.17,1.90,0.45,-0.07,1.15,-0.48,-1.15,-0.92,0.00,1.23,0.57,-0.10,-2.17,-0.80,-0.72,0.39,0.47,0.67
"ex2811",-1.49,0.16,-0.94,-0.84,1.48,0.32,0.52,0.29,6.35,6.27,5.22,4.16,3.55,2.69,1.92,0.51,0.36,-1.05,-0.91,1.03,1.63,1.18,1.09,-2.84,-0.69,-1.00,0.79,-0.20,0.73,-0.70,0.17,-1.25,0.76,0.94,2.51
"ex2812",-1.66,0.47,-1.22,-0.49,2.24,2.70,4.23,2.57,3.18,5.14,6.05,3.73,3.50,1.13,2.76,-0.53,0.18,0.98,-2.79,1.86,0.31,0.03,0.69,-1.23,1.21,0.21,0.46,-1.66,-0.71,-1.54,-0.09,-0.99,1.30,-2.07,-0.09
"ex2813",-0.32,-0.49,-0.80,2.15,0.20,1.59,1.52,1.59,3.61,4.87,5.47,5.18,3.37,3.56,1.06,0.63,-0.67,-0.78,0.42,1.05,-1.62,0.52,-0.24,0.20,-1.14,1.16,-1.10,0.84,0.28,-1.34,1.48,0.18,-0.70,0.08,0.80
"ex2814",-1.16,1.15,0.17,2.72,1.70,3.23,4.00,3.16,1.17,2.71,2.31,0.02,0.68,0.60,2.60,3.37,2.77,1.25,-1.19,0.65,1.17,0.71,-0.09,1.35,-0.02,1.01,0.09,-0.04,-0.98,0.50,0.49,0.97,0.44,0.38,-1.94
"ex2815",0.21,1.30,0.70,0.96,0.42,0.75,0.86,-0.29,2.41,0.41,2.85,3.41,5.64,4.65,7.33,3.98,2.78,2.00,2.13,1.72,1.60,2.69,0.92,0.07,0.27,-0.56,1.97,-0.58,0.70,1.66,-2.02,0.55,-0.80,-0.46,-0.04
"ex2816",0.26,-0.05,-0.48,0.00,0.69,2.12,3.17,1.21,3.07,0.39,5.13,3.73,3.32,2.52,3.93,0.57,0.57,0.98,0.55,1.55,1.02,-0.98,2.18,-0.72,-0.99,-0.92,0.24,-0.34,-0.78,0.13,-1.95,-1.51,1.09,0.67,1.22
"ex2817",-0.50,0.53,1.05,2.98,2.65,3.52,6.64,5.18,4.94,2.06,3.61,2.28,0.45,0.88,-0.18,-1.11,-0.86,-0.22,-0.73,1.04,0.92,1.01,0.89,0.11,-0.70,0.49,-0.64,-0.16,-1.12,-0.04,-0.75,0.14,0.94,0.67,1.70
"ex2818",-0.90,0.96,0.15,1.02,0.55,1.22,1.42,1.47,4.45,4.84,5.84,3.51,3.56,1.85,1.02,0.72,1.15,-1.47,1.13,1.16,-1.85,0.43,0.36,1.13,-1.52,-1.19,0.27,-1.35,2.05,0.40,0.19,-0.84,-1.40,-1.36,-0.49
"ex2819",0.12,-0.27,-0.40,0.36,0.46,1.85,1.37,2.80,2.50,3.77,5.25,3.97,1.84,3.76,4.05,1.53,0.85,0.40,0.06,1.04,-0.77,-0.21,0.78,0.28,-1.74,0.48,-0.02,-1.36,0.48,-0.29,0.94,1.04,-0.35,0.32,0.90
"ex2820",-0.29,0.38,-0.51,1.70,0.90,3.26,2.29,1.31,2.72,4.51,4.55,3.94,5.21,3.82,2.58,1.76,-0.19,1.38,1.64,1.07,0.62,-2.13,-0.26,-1.40,-0.64,-0.83,0.83,-0.02,0.00,0.66,-0.61,-0.03,-0.01,-0.33,-0.73
"ex2821",0.15,-0.39,-0.70,0.79,0.54,1.09,4.08,1.88,3.06,4.66,7.33,5.25,2.88,3.39,2.12,-1.27,1.99,0.51,-1.01,0.19,1.39,-0.31,0.60,-0.37,-0.46,0.26,0.27,0.46,-0.55,0.81,1.15,-0.15,-1.24,-0.25,-0.54
"ex2822",-0.21,-0.31,0.46,1.93,1.54,2.23,4.01,3.18,4.92,3.44,2.53,2.00,0.97,1.10,1.23,0.57,1.80,1.31,0.99,-0.91,1.34,-1.12,0.63,1.81,0.14,-0.33,0.74,-0.78,-0.89,0.44,0.70,-0.12,0.59,0.37,-1.08
"ex2823",0.62,-1.83,0.22,1.13,1.93,3.29,5.90,4.33,1.97,2.73,2.48,1.32,0.09,-0.01,-0.54,0.92,-0.33,0.86,0.11,1.43,0.77,-0.70,-1.31,-0.12,0.26,0.97,0.98,0.39,0.27,0.27,-1.46,0.34,-0.77,0.12,-1.22
"ex2824",-1.53,0.16,-0.71,1.14,-0.09,1.67,0.13,0.92,1.84,1.38,2.65,2.78,3.68,2.71,4.58,4.51,1.43,2.22,0.30,-0.07,-1.59,-0.07,0.12,1.01,-0.27,-0.47,-0.35,-1.26,0.43,0.70,-0.66,-0.60,0.49,0.35,1.64
"ex2825",-0.11,0.70,0.38,0.46,-0.64,-0.04,1.19,0.99,-1.48,1.54,1.37,2.85,2.68,4.82,6.76,4.23,5.37,2.67,1.66,0.28,0.37,0.70,0.44,1.75,-0.07,-0.77,0.25,0.92,1.62,1.48,0.36,0.18,0.32,1.40,-0.39
"ex2826",0.11,-1.00,0.17,1.47,0.95,-2.68,1.01,0.98,0.27,3.00,2.32,1.85,3.06,4.58,3.99,5.55,2.79,2.05,0.95,0.46,-1.40,-0.20,2.12,0.32,0.58,1.20,0.09,0.10,0.42,-0.83,-0.11,-0.96,0.06,-0.94,1.19
"ex2827",-3.08,2.02,2.94,2.07,2.59,4.51,2.80,4.79,3.65,3.27,4.10,2.04,3.11,-0.07,1.28,1.47,1.46,0.16,0.24,0.02,-0.82,-0.57,-0.13,0.61,-0.13,-0.16,-0.37,0.68,-0.96,-0.27,-0.86,0.32,1.11,-1.10,-0.44
"ex2828",-0.26,-0.99,-0.85,1.24,-1.80,-1.92,-0.22,0.72,-1.14,2.01,2.23,3.55,4.49,5.63,4.78,5.16,2.91,2.17,1.57,0.89,-0.91,0.39,-0.40,-0.88,1.08,-0.21,-0.74,1.04,1.18,-0.20,-0.33,0.65,-0.19,0.05,-0.42
"ex2829",-0.26,0.06,1.55,1.47,2.27,1.59,5.16,3.42,5.43,3.46,3.03,2.82,2.40,2.93,1.94,1.63,0.41,0.01,1.83,-0.96,1.20,-0.98,0.02,0.71,1.21,-0.38,0.01,-1.13,0.10,0.11,0.33,0.68,-2.80,1.66,-0.01
"ex2830",-0.35,1.38,0.59,2.39,1.96,2.25,3.41,5.10,4.05,4.97,3.01,4.80,2.05,1.88,1.12,0.04,0.93,-0.24,0.11,-0.27,0.56,0.04,1.69,0.69,-0.25,-1.03,-0.65,0.46,1.14,-0.13,-0.72,-0.27,0.05,0.71,0.72
"ex2831",-0.50,0.24,0.99,0.93,0.69,0.90,-1.73,1.30,1.77,0.64,3.04,1.41,5.09,4.90,5.44,3.91,4.03,2.48,0.89,1.79,0.51,-1.36,1.19,0.22,0.92,-0.22,-0.71,-1.09,0.29,-0.72,1.94,1.14,-0.07,0.37,-0.58
"ex2832",-0.69,0.79,-0.37,-1.53,-1.08,-1.35,1.18,2.98,4.22,3.57,6.50,4.10,4.60,4.54,1.99,2.02,0.08,1.35,2.07,-2.39,-1.50,-0.25,-1.83,-0.66,-1.58,0.23,-0.96,-0.40,1.36,-0.56,-0.36,0.45,0.74,-0.84,0.10
"ex2833",1.26,-0.53,-1.43,-0.44,-1.07,0.55,2.14,2.75,4.10,5.45,5.73,5.75,4.57,3.34,3.00,1.62,0.53,0.70,0.05,0.03,-1.13,-0.03,-0.14,0.36,1.09,-1.94,-0.17,0.98,-1.24,2.15,-0.55,-0.65,1.83,-0.34,1.92
"ex2834",0.79,0.87,1.70,2.75,2.74,3.12,4.37,4.12,4.37,2.91,4.12,3.22,1.49,2.35,0.43,0.68,0.06,0.27,0.25,2.41,0.14,-1.20,0.18,0.58,0.12,1.16,-1.12,-0.71,1.17,-0.49,-2.14,0.39,0.94,0.53,1.03
"ex2835",0.54,0.40,-0.14,1.57,-0.38,0.18,1.37,1.23,0.02,-1.52,3.58,2.51,3.96,5.24,4.43,4.23,4.31,4.16,1.58,-0.77,-1.92,1.28,0.76,0.35,-1.55,1.35,0.04,0.08,0.76,-0.38,0.08,1.21,-0.50,0.13,0.28
"ex2836",0.13,2.86,0.60,-0.26,1.85,0.01,0.37,1.29,1.93,3.01,2.47,2.80,6.65,4.66,2.82,0.97,1.55,2.37,1.13,2.56,-0.61,-0.61,-0.82,0.37,-0.08,-0.97,0.85,-0.93,-1.17,0.32,-0.50,-0.47,1.29,-1.34,0.11
"ex2837",0.11,0.91,0.87,2.65,1.28,2.61,3.97,3.83,4.43,6.00,4.32,2.33,2.07,3.65,0.56,1.31,0.82,-0.30,0.44,-0.10,-0.12,-0.40,-1.76,1.57,0.79,-0.01,-0.41,-1.05,-0.57,-0.45,-0.20,0.98,-0.44,-0.67,1.02
"ex2838",0.85,-0.13,1.42,1.80,1.99,4.24,5.70,3.26,3.96,4.81,3.15,1.26,2.13,0.18,1.07,-0.29,-0.92,-1.00,-0.25,2.21,1.84,0.36,-1.29,-0.35,-0.89,2.92,-0.84,0.81,-0.41,-0.17,-1.66,1.48,0.41,0.03,-1.72
"ex2839",-0.42,1.10,-1.36,-0.56,0.26,-0.78,3.02,2.09,4.10,5.33,5.35,5.26,3.42,2.78,1.54,2.94,-0.57,0.59,-0.74,-0.38,0.19,0.51,1.06,1.71,0.25,-0.56,-1.49,0.28,-1.35,0.47,-0.43,0.37,0.65,0.13,0.90
"ex2840",-0.35,0.21,-0.93,1.17,-0.50,2.10,0.55,2.18,1.36,4.32,5.65,5.11,4.22,4.84,2.73,1.17,1.24,1.62,0.06,0.92,1.54,0.11,0.84,-0.18,0.47,0.47,0.22,1.26,-0.10,-0.19,0.35,-0.25,-1.43,0.89,-0.92
"ex2841",-1.86,-0.49,0.60,4.01,3.11,4.42,3.93,2.84,2.29,0.47,2.85,-0.52,-0.87,0.45,0.72,-0.86,1.39,1.29,1.42,-0.79,0.07,-1.51,-0.90,-0.05,-1.10,-0.72,-1.91,-0.75,-0.53,-0.34,-1.00,0.52,-2.42,1.35,-1.85
"ex2842",0.02,0.23,0.98,-0.39,-0.71,0.25,0.51,0.54,0.06,0.51,3.32,4.53,4.28,3.15,4.76,2.25,2.39,1.50,1.81,-0.46,1.23,-0.76,-1.08,2.32,-0.13,0.41,-0.40,1.12,0.01,-1.02,1.49,0.47,-0.45,1.43,-1.29
"ex2843",-0.15,-0.26,-0.35,-0.47,-2.29,1.17,-0.37,0.27,1.87,2.40,3.73,2.86,3.89,5.29,5.47,3.36,2.37,2.31,1.04,1.48,-0.51,-0.96,-0.88,-1.29,1.85,-1.17,0.28,-1.78,0.18,1.14,-0.88,0.24,-0.75,0.16,-0.72
"ex2844",0.90,0.68,0.93,1.65,2.45,3.58,4.20,3.42,2.50,3.44,3.06,3.57,0.78,1.35,1.98,2.69,1.30,-1.06,1.48,0.52,0.89,-0.78,-1.33,-1.02,-0.34,1.26,0.98,-1.97,-0.06,-0.26,-1.16,-1.20,0.38,-0.78,-1.19
"ex2845",-1.05,-0.50,1.59,1.91,2.60,0.43,1.35,3.82,0.12,0.96,1.13,1.60,1.47,0.72,3.86,1.59,1.68,1.43,0.52,1.12,0.30,0.54,-1.18,0.11,-0.03,1.45,-1.11,-0.78,1.83,0.29,2.22,0.07,3.08,1.13,-0.55
"ex2846",-1.42,1.30,-1.04,2.26,1.96,4.29,2.12,2.52,2.17,1.22,1.29,1.94,1.14,1.70,1.89,2.63,1.12,2.18,-0.01,-0.41,1.10,0.60,0.39,-0.31,0.15,-0.73,-0.54,2.13,-0.78,0.11,0.28,0.96,-0.74,1.26,0.28
"ex2847",-0.38,0.83,1.39,1.89,2.18,3.86,5.87,3.56,3.82,3.80,2.31,1.36,0.58,0.38,-0.03,0.57,1.08,-1.09,0.67,0.15,0.78,0.61,-0.90,-1.41,0.78,-0.81,0.56,-0.17,0.99,-0.53,-0.65,0.40,-0.49,0.57,-1.66
"ex2848",-1.08,-1.35,1.85,-1.56,0.40,0.49,2.93,4.17,3.89,4.00,3.75,4.80,2.59,3.16,3.21,1.89,0.52,-0.97,-0.15,0.27,-0.73,-2.58,0.54,0.95,-0.54,0.79,0.51,-1.60,-0.51,1.77,1.17,-1.21,-1.48,-0.35,1.16
"ex2849",0.73,1.60,2.70,2.08,2.32,5.08,5.73,2.92,3.41,4.15,1.30,3.06,-0.18,-0.30,1.41,-0.14,0.89,-0.22,-0.71,-0.61,0.22,-1.84,-0.18,1.17,0.02,-0.05,-1.05,-0.75,0.54,-0.52,0.61,-0.05,-0.25,1.13,-0.75
"ex2850",0.83,-0.24,2.24,1.52,4.30,5.46,6.36,6.00,6.01,0.72,3.46,3.34,-0.82,0.54,-0.34,0.40,-0.42,-1.01,-0.78,1.00,-2.03,0.59,1.42,0.74,0.97,-0.52,0.32,0.27,1.35,-0.30,-0.33,0.75,1.11,0.25,-2.06
"ex2851",-0.03,0.65,-0.37,0.30,-0.10,0.55,1.59,5.45,2.11,5.78,6.76,4.28,1.68,0.55,1.96,3.24,-1.54,0.12,0.73,0.48,-0.98,0.02,0.26,-0.28,0.71,0.17,0.77,-0.28,-1.23,-1.66,-1.87,-0.80,0.37,-0.34,-0.58
"ex2852",0.40,0.43,-0.67,0.17,-0.81,2.10,2.09,2.61,3.77,5.23,5.97,5.83,2.90,2.76,2.01,2.85,0.30,-1.18,0.88,-1.30,-1.17,-0.41,0.27,1.47,-0.44,0.12,-0.99,-0.14,0.48,-0.62,-0.35,0.07,1.18,0.08,0.91
"ex2853",1.11,-1.68,2.37,-0.99,-0.51,0.82,1.37,1.31,1.36,4.41,6.21,4.50,3.92,4.19,4.46,1.30,-0.62,1.07,0.72,1.20,1.18,0.09,-1.74,0.56,1.74,-2.11,-0.27,-0.43,0.04,-0.31,0.14,-0.97,-0.23,1.16,-0.57
"ex2854",-1.89,-0.33,3.04,2.77,2.34,4.65,5.98,2.66,3.60,1.98,1.59,2.64,1.44,0.59,1.87,1.52,1.97,0.84,-0.43,1.03,-1.36,0.01,0.24,1.17,0.47,0.45,0.67,-0.89,0.31,-0.90,1.01,-0.33,0.93,-0.20,0.27
"ex2855",-0.31,1.23,2.46,0.92,2.24,3.51,4.29,3.21,4.44,4.69,3.62,2.64,2.06,0.47,0.98,-0.30,0.38,0.07,1.02,-0.81,-0.85,-0.38,0.10,2.04,0.56,-0.16,-1.52,-0.08,-0.91,1.50,-0.38,-1.20,1.73,-1.38,0.85
"ex2856",0.79,1.51,-0.01,1.01,-0.34,-0.01,1.02,0.34,1.48,0.65,2.05,4.29,4.94,5.27,4.16,3.49,3.72,3.63,2.85,-0.15,-2.44,-0.30,-1.24,-0.24,-0.19,0.25,-1.48,0.32,1.59,-0.91,-0.31,1.65,0.58,-0.76,-1.05
"ex2857",0.02,-0.41,0.06,-0.05,-0.11,-0.92,1.83,1.58,2.18,3.82,4.58,5.45,3.20,5.43,4.65,3.46,1.59,0.72,-1.01,0.28,0.13,-0.19,-0.75,0.61,0.51,1.21,-1.64,0.21,-2.33,0.04,2.14,0.47,-0.51,-1.52,0.70
"ex2858",-0.69,0.60,-0.60,-0.58,0.54,1.15,1.90,3.89,3.79,4.31,4.91,4.88,2.30,1.87,1.10,1.79,0.08,0.95,-1.38,0.21,-0.30,-1.39,0.38,1.23,0.26,-0.32,1.43,-1.12,1.92,-0.97,-2.90,1.64,0.80,1.99,0.00
"ex2859",0.32,0.32,2.34,0.94,2.37,1.18,3.37,3.62,4.38,4.82,4.67,2.68,2.83,2.09,2.60,1.23,-0.40,1.62,-0.81,-1.09,-0.75,0.95,-0.15,-0.59,0.09,-0.64,0.42,-0.83,-0.12,-0.05,-0.23,0.50,-1.34,0.40,-0.46
"ex2860",-1.75,1.35,2.03,2.47,3.77,4.09,3.59,3.50,2.37,2.83,2.39,0.44,0.66,1.38,-0.05,-1.86,-0.56,0.63,1.30,1.48,-2.58,2.75,1.08,0.46,0.35,0.17,-1.27,2.54,-2.72,-0.58,-1.45,-0.13,-0.48,-0.98,1.35
"ex2861",1.05,-0.32,1.27,1.40,1.67,3.24,6.02,5.02,3.87,3.49,4.81,3.90,1.46,-0.28,0.22,-0.98,0.48,0.56,-0.41,1.95,-0.72,0.32,0.25,-1.32,0.43,0.39,-1.11,2.20,-0.32,-1.29,1.11,0.20,-0.08,0.98,0.77
"ex2862",-3.54,1.27,1.28,2.72,3.70,4.71,4.18,6.02,3.33,2.67,2.27,0.16,-0.08,-0.34,1.42,-1.64,1.18,0.61,-1.74,1.41,0.93,-0.87,-0.23,-0.12,-0.84,0.36,-0.65,0.93,-0.91,-0.60,-0.97,-0.48,0.09,-1.32,0.45
"ex2863",1.59,-0.83,-1.36,0.48,0.93,1.10,-0.11,0.99,1.29,2.99,3.88,3.38,2.77,5.17,3.60,2.02,4.09,2.95,2.65,0.44,-0.88,-0.76,-1.35,-0.93,-0.75,0.59,0.02,-1.36,1.41,1.53,0.61,0.62,1.79,-1.32,-0.25
"ex2864",-2.01,-0.68,-2.09,1.93,-1.14,-1.13,-0.99,1.18,1.06,2.92,2.11,5.19,5.65,4.76,6.00,3.37,3.30,1.27,1.91,0.63,0.94,0.76,1.08,0.32,-1.25,-0.49,0.79,1.37,-0.31,1.13,1.52,0.15,-0.02,-0.58,-2.61
"ex2865",-1.01,-0.25,-0.83,-0.85,-0.39,2.41,1.83,3.73,3.74,3.86,5.80,5.80,3.25,2.08,2.04,2.54,1.71,2.19,-2.38,0.38,-0.94,0.77,-1.17,-0.17,1.37,-1.33,0.01,0.07,-0.25,-0.73,-0.24,1.21,-0.34,0.87,-0.45
"ex2866",1.62,0.26,0.70,1.52,3.95,5.26,4.72,5.02,4.60,3.22,1.00,1.74,2.86,-0.14,1.68,1.79,-0.93,1.30,1.36,-0.20,1.36,-0.58,0.12,0.49,-0.98,1.55,0.51,0.30,-1.55,-0.98,2.73,0.62,1.50,0.91,1.50
"ex2867",-1.12,-0.79,0.54,1.12,1.47,0.42,-0.86,0.42,-0.62,-0.02,2.53,2.40,4.43,3.37,6.68,5.28,3.70,3.34,3.43,-0.41,0.30,0.11,0.30,-1.76,1.16,0.54,-0.27,0.23,-0.97,-0.62,-0.89,-0.01,0.25,0.31,-0.16
"ex2868",-0.17,1.38,4.03,2.22,1.40,4.74,7.95,4.76,4.25,3.47,6.13,0.11,0.10,0.21,1.53,-0.83,0.05,-0.41,-0.73,2.36,0.75,-1.88,-0.11,0.27,-1.47,1.27,-0.04,0.59,-0.93,1.90,0.84,-0.58,-0.96,0.65,-0.99
"ex2869",0.72,1.95,0.06,2.52,1.54,3.74,3.69,2.04,0.84,2.82,1.92,3.03,3.98,3.27,2.76,4.13,3.63,2.24,0.73,-1.22,-0.89,-0.66,-1.34,0.99,0.20,-0.81,1.13,-0.98,-0.07,0.66,-1.06,-1.27,0.19,0.91,-0.76
"ex2870",0.96,-2.24,0.06,-0.18,1.13,0.68,2.44,1.63,2.48,4.64,6.63,5.75,4.39,3.15,1.96,0.47,-0.29,0.83,-1.02,-0.21,0.69,0.05,-1.40,-0.89,-0.59,1.63,-1.96,0.95,-2.12,-0.77,0.00,1.56,1.66,-0.20,1.58
"ex2871",-1.38,-1.10,-1.34,-0.98,-0.13,1.49,1.30,0.63,2.09,3.07,2.48,2.11,2.10,5.02,1.59,2.27,3.79,3.22,3.38,2.53,0.34,0.02,0.01,0.51,0.44,-0.46,1.54,-1.04,-0.33,-1.00,2.50,0.56,-1.25,0.50,0.44
"ex2872",-1.52,0.99,0.61,2.18,1.09,2.41,1.13,2.13,1.77,2.15,2.57,4.38,0.31,2.55,4.21,3.00,2.27,1.86,1.91,0.06,0.66,0.79,-0.45,-0.14,1.09,0.30,-0.21,0.58,-1.27,-0.47,1.00,-1.35,-0.37,1.38,1.77
"ex2873",-1.18,-2.18,-0.48,0.31,-0.97,1.84,-0.96,0.24,0.06,0.89,2.27,2.31,2.81,3.70,5.84,4.69,4.00,1.70,1.83,0.44,0.52,-1.11,-1.01,1.17,1.19,-0.76,0.76,0.88,0.17,-0.92,1.93,-0.90,0.67,1.43,-1.11
"ex2874",-0.02,0.89,2.61,2.38,2.30,4.92,4.74,5.31,3.96,2.56,2.11,0.12,0.60,-1.00,-0.08,-0.71,-0.40,1.11,-0.00,0.36,-1.69,0.81,-0.36,3.17,-0.21,0.17,1.20,0.66,-1.65,0.10,-1.96,-1.07,0.37,-0.31,-0.83
"ex2875",0.79,0.81,-0.36,0.40,-0.69,-0.05,1.57,2.53,0.23,4.25,3.50,5.82,4.27,5.02,4.34,2.48,3.31,-1.16,1.21,2.09,1.73,0.16,0.15,-0.14,1.19,1.32,0.29,-0.97,-0.51,-2.25,0.57,0.21,0.51,1.78,-0.85
"ex2876",0.85,1.88,1.22,2.37,3.02,4.42,4.58,5.39,4.58,1.18,3.84,1.19,1.76,0.25,0.36,1.27,1.20,0.30,-1.43,0.29,-0.71,0.81,0.01,-0.18,1.33,2.06,0.35,-0.91,-0.12,-0.32,0.21,1.40,-1.01,-0.25,0.96
"ex2877",0.69,-1.49,-1.62,-0.11,0.52,-1.01,-0.82,0.27,2.18,2.60,1.05,3.62,5.45,4.99,6.07,2.95,3.86,2.96,1.88,0.29,0.59,-0.79,-0.50,0.22,-1.00,0.18,0.29,-0.36,-0.68,0.82,-1.16,0.17,0.36,-0.27,0.17
"ex2878",1.10,0.64,0.87,0.77,2.42,4.86,2.51,6.22,2.21,4.13,2.93,1.25,1.74,2.04,2.43,0.82,-0.08,-0.63,-0.71,-0.01,-1.46,0.55,-1.34,0.40,0.15,1.39,0.68,0.31,0.68,1.53,-0.63,-2.13,-0.96,-0.24,-1.56
"ex2879",-0.46,0.13,1.76,2.50,4.39,3.89,5.91,5.08,3.25,1.39,2.04,2.44,0.11,0.84,-0.73,0.06,-0.20,-0.31,-0.13,1.45,1.29,1.11,1.67,-1.63,1.21,3.03,0.63,-2.05,-0.41,1.64,-0.67,0.74,0.42,-0.47,1.58
"ex2880",0.32,0.05,1.36,2.22,0.36,1.24,4.75,6.70,3.22,5.04,4.05,1.29,1.40,2.25,2.54,-0.56,0.43,-0.13,-0.87,0.65,-0.43,0.03,-0.36,-0.46,0.60,0.56,-1.70,-0.39,-1.19,-0.49,1.24,-0.90,0.75,-2.40,-1.83
"ex2881",-0.53,1.50,2.54,2.33,4.12,3.73,7.27,3.91,4.68,3.69,2.91,2.01,-0.23,2.14,0.57,-0.24,0.76,0.99,-0.21,0.75,1.15,-1.99,1.17,-0.08,0.91,1.36,0.31,0.43,0.49,0.19,-0.94,-1.01,-1.30,0.60,1.18
"ex2882",1.96,-0.68,0.36,-1.14,0.60,1.51,1.52,-0.49,1.27,2.52,0.25,1.40,4.25,4.16,5.69,3.34,2.90,2.37,1.78,0.64,0.57,0.23,-0.48,-1.02,0.73,-0.43,1.63,0.49,-0.49,1.66,-0.66,0.53,0.72,-0.22,0.52
"ex2883",1.12,1.17,0.73,1.95,1.33,2.03,3.30,5.65,4.57,5.13,2.94,4.06,-0.60,1.34,1.04,-1.65,-1.54,0.86,0.02,0.43,-0.33,-0.52,-0.90,0.71,-1.06,-0.34,-0.09,-1.64,-0.17,0.88,1.06,-0.22,-0.23,1.11,0.48
"ex2884",0.29,-0.52,-0.64,2.23,3.24,2.52,2.26,5.46,3.53,2.78,3.80,1.39,1.92,1.39,1.01,-0.96,0.61,0.90,-0.45,0.44,0.55,-1.13,0.28,-0.38,1.47,0.70,-0.29,-0.19,0.20,-1.88,1.96,0.70,-0.00,0.74,0.47
"ex2885",-0.06,2.30,2.74,2.92,4.43,6.90,4.58,4.55,4.60,2.44,1.36,2.19,-0.24,0.47,-0.64,0.40,0.43,-0.27,0.52,0.16,-0.38,0.82,0.12,-0.02,-0.32,-1.17,1.18,0.15,0.35,-0.77,-1.76,-0.48,-1.53,0.33,-0.62
"ex2886",1.58,1.29,-0.10,-0.12,0.15,2.00,1.75,0.88,0.95,1.62,1.55,2.52,2.27,5.04,3.52,1.82,3.93,1.58,1.60,1.95,-0.11,-0.04,-0.20,1.68,-0.82,-0.34,0.36,-1.09,0.02,0.98,-0.31,0.90,0.76,0.13,-1.00
"ex2887",0.50,1.28,1.34,3.28,4.41,4.83,5.62,4.95,2.72,0.67,4.21,0.48,0.84,-0.17,-0.36,1.66,0.30,1.77,-1.06,2.63,1.11,-0.10,-1.24,-0.61,-0.79,-3.14,0.83,0.17,-1.08,-1.01,-1.21,-1.22,-0.21,1.42,-1.77
"ex2888",1.47,1.43,1.58,1.10,0.46,2.16,3.47,1.99,2.33,3.90,1.59,2.05,1.50,1.32,2.64,2.17,2.97,1.60,0.84,-0.03,0.36,0.13,-0.48,-0.79,-0.75,-0.56,-0.70,0.24,1.39,-1.09,-0.30,2.38,0.57,1.53,0.62
"ex2889",-1.28,0.97,-0.02,2.47,2.36,2.85,2.93,3.42,3.18,1.50,2.58,2.28,1.15,3.29,1.85,2.93,1.36,1.04,3.71,0.29,1.65,-0.03,-0.43,-1.28,-0.17,-0.55,-0.49,0.97,-0.12,-1.04,2.20,1.20,0.18,-1.81,0.74
"ex2890",2.16,2.13,0.18,0.28,-0.22,1.30,2.78,3.10,3.75,4.79,6.33,5.48,3.69,2.22,2.45,1.34,0.65,0.29,-1.27,-0.65,-0.36,-1.04,-1.07,2.24,-1.16,0.83,0.98,-1.12,0.58,0.16,-0.36,-0.17,0.34,-0.92,-0.49
"ex2891",-1.00,0.88,-0.93,-0.81,-1.14,0.11,1.54,-0.04,0.75,0.05,0.46,3.47,2.99,5.26,4.32,3.24,3.18,2.18,1.05,1.24,-0.05,0.43,1.35,0.71,0.67,-1.29,0.20,1.05,0.28,-0.63,1.79,1.56,-0.61,-1.92,-0.07
"ex2892",0.98,1.47,-0.18,1.97,-2.23,0.73,0.64,1.12,3.56,5.10,4.32,5.39,4.73,3.73,2.69,1.98,2.50,1.49,0.30,0.36,2.74,-0.27,1.19,-1.39,-0.22,0.46,-1.63,-2.45,0.86,1.93,-2.16,0.51,1.33,2.06,2.10
"ex2893",-1.38,0.24,2.05,1.11,3.76,5.72,5.59,4.44,2.23,2.92,-0.68,1.65,1.24,1.48,1.05,2.79,1.61,3.07,1.02,-0.89,-1.52,0.76,0.26,-0.85,0.51,0.63,0.48,-0.66,-1.45,-0.01,0.31,-0.94,0.68,-1.32,-0.61
"ex2894",-0.23,-0.01,-0.13,1.01,1.48,3.18,4.40,3.36,2.59,5.51,4.58,1.78,1.85,1.45,1.98,1.28,0.62,-0.13,1.17,1.00,-1.31,-1.47,0.13,0.41,1.12,0.29,-0.28,0.84,1.35,0.95,-0.63,-1.23,1.11,1.14,1.18
"ex2895",0.59,-1.00,-0.35,1.98,2.91,1.06,3.33,2.83,2.99,3.03,4.22,6.28,3.74,2.57,2.28,-0.54,-1.35,1.17,0.53,-0.30,1.30,1.68,-1.10,1.15,-0.01,-1.36,0.01,-1.01,0.21,-1.12,0.48,-0.14,0.37,1.57,-0.57
"ex2896",0.49,-0.22,1.58,0.03,2.07,-0.01,3.76,2.64,4.42,4.87,4.24,3.62,2.17,0.44,0.58,1.52,0.92,0.06,0.67,-1.02,-0.72,-2.62,-1.57,0.22,-0.28,0.09,-1.36,0.75,0.01,0.21,-1.23,-1.01,0.38,0.22,-1.45
"ex2897",-0.18,0.26,0.68,1.81,2.50,5.18,6.04,2.01,4.46,2.25,2.42,0.10,1.57,2.03,-0.34,3.65,-0.02,1.49,-0.68,-0.03,0.46,-1.55,-1.51,-0.97,1.64,2.26,0.27,0.14,-1.72,-1.16,1.26,1.71,0.94,-0.95,-0.00
"ex2898",0.29,1.05,0.37,0.24,-1.23,1.85,-0.65,0.42,1.52,4.79,2.53,4.69,4.78,3.61,2.53,2.60,1.20,1.55,1.32,-1.32,1.37,-0.14,-1.44,0.97,1.20,-1.89,2.89,-0.69,0.38,-1.73,0.02,1.07,-1.32,-0.18,-0.18
"ex2899",1.51,0.92,1.10,1.87,2.73,3.57,3.37,5.48,3.14,3.39,3.13,2.61,2.13,1.87,-0.27,1.31,-0.75,0.08,-1.21,1.06,-0.23,-1.44,0.42,0.59,-0.54,0.26,-1.27,0.51,-0.27,-0.07,1.27,0.33,-0.50,0.36,0.34
"ex2900",1.52,-0.85,1.35,2.27,2.00,3.73,4.16,2.85,1.01,0.04,2.15,1.13,1.75,2.51,2.12,2.70,2.08,1.19,-0.57,-1.58,-0.22,-0.16,1.48,0.96,-1.08,0.47,-0.08,2.03,1.17,0.65,-0.67,-1.14,0.27,0.42,-0.02
"ex2901",-0.73,0.12,-0.18,0.28,-0.43,2.16,0.59,-0.79,-0.04,-0.85,1.02,2.91,6.03,4.40,6.11,2.88,3.93,1.95,1.15,1.83,-0.35,-0.12,0.75,1.04,-1.37,0.84,0.09,-0.16,-0.02,0.25,-1.26,-0.05,-1.23,1.05,-1.89
"ex2902",-1.29,1.16,1.04,0.85,4.18,2.09,5.19,4.65,3.19,3.16,3.55,2.06,0.11,0.62,1.61,1.09,1.05,1.39,-0.09,-1.34,0.45,-0.86,-0.07,1.06,0.54,-0.06,-0.83,0.10,-1.38,-0.44,1.00,-0.97,-1.87,1.12,-0.35
"ex2903",-0.15,1.21,-0.19,0.41,1.22,3.37,4.29,3.53,6.00,3.25,4.11,4.10,1.52,0.54,0.80,1.05,0.27,0.27,-2.45,0.66,1.18,0.01,0.55,1.20,-1.44,0.03,0.67,0.39,1.98,0.59,0.18,2.04,-1.15,-0.46,0.03
"ex2904",-1.18,0.71,2.63,3.03,3.73,3.58,5.25,3.71,0.95,1.74,3.17,2.60,0.80,0.65,1.65,-0.57,1.18,0.19,0.98,1.51,-0.93,-0.07,1.55,-0.27,0.67,-1.02,-1.02,0.46,-0.31,1.52,-0.34,0.95,0.09,-0.43,0.17
"ex2905",0.48,1.29,0.86,0.75,1.65,0.58,3.58,2.11,2.77,3.00,2.92,1.74,1.48,4.25,3.21,4.16,2.47,1.52,-0.45,-0.51,-0.54,0.78,-1.18,0.16,-1.39,-1.10,0.74,0.18,-1.04,-0.76,1.19,-0.12,-2.25,1.62,-0.60
"ex2906",-0.12,-0.20,1.59,-0.30,-0.23,2.67,2.61,3.35,4.54,4.27,4.59,4.29,1.24,2.33,3.13,1.84,-0.86,1.22,1.55,-0.53,0.89,1.67,1.03,0.07,1.71,0.25,-0.29,0.56,1.86,0.11,-0.34,2.53,-0.04,-0.20,1.53
"ex2907",1.98,-0.85,-1.24,1.32,1.50,0.87,3.59,2.70,5.39,3.85,5.98,4.58,2.94,2.96,-0.27,0.93,-1.41,0.24,0.64,0.48,0.78,-0.16,1.05,-0.23,1.11,1.22,0.43,-0.90,1.04,-1.82,-2.17,-0.15,-1.62,-0.26,0.68
"ex2908",1.16,1.83,1.47,0.94,0.71,2.70,1.93,4.16,3.41,4.22,5.29,4.56,3.38,3.78,1.56,2.54,-1.25,-1.40,1.54,0.32,0.73,0.27,1.08,-0.50,-0.28,-0.80,1.69,1.25,-1.68,-0.32,0.60,1.65,-0.51,1.61,-0.06
"ex2909",-1.44,-0.16,-1.13,0.97,-0.04,-0.17,-0.04,2.18,2.23,2.23,2.82,3.49,5.39,5.93,7.03,4.47,2.07,1.93,1.46,2.26,-0.70,0.27,1.03,-1.31,-2.23,-0.88,-0.13,0.25,-0.44,-2.59,-0.78,-1.52,-1.76,-0.05,-0.01
"ex2910",-0.36,-0.51,2.08,0.22,-0.40,1.90,0.47,1.35,1.16,1.51,2.85,2.00,2.50,2.87,5.34,3.72,2.92,1.88,0.12,1.95,-0.32,-1.42,0.41,-1.14,-0.35,-0.61,0.77,0.77,0.38,-0.68,0.07,0.72,-0.35,0.12,-0.69
"ex2911",-0.32,-0.26,0.90,0.03,-0.27,0.69,-0.45,-0.73,0.39,1.78,3.68,3.22,4.83,5.23,4.77,1.24,3.89,1.97,1.86,0.30,-0.93,0.77,3.31,0.92,0.81,-1.85,1.41,-0.21,-1.12,-0.58,1.19,-0.19,-1.08,0.01,-1.75
"ex2912",1.56,-0.32,1.40,0.19,-0.81,1.55,-0.76,1.20,1.32,1.01,2.13,1.75,3.63,5.03,7.91,4.65,1.91,2.96,1.93,1.38,-2.03,-1.60,0.91,-1.33,-0.44,-0.44,0.05,0.29,0.07,2.07,1.60,0.39,1.04,-1.53,-0.73
"ex2913",0.76,0.60,-1.14,0.11,-0.83,0.27,3.77,2.62,1.72,5.34,3.51,3.20,1.51,1.83,2.55,1.57,2.87,-0.64,0.92,0.92,0.15,-0.88,-1.76,0.50,-1.68,-0.35,0.16,-1.16,1.69,0.45,-0.17,1.76,0.79,0.49,0.82
"ex2914",0.25,-0.04,1.51,1.86,1.13,2.31,4.04,1.71,4.35,4.58,3.38,2.60,3.10,1.87,1.70,1.28,1.34,-0.10,0.91,-1.78,2.46,0.37,0.50,-0.25,0.66,0.19,-0.12,0.55,-1.60,0.62,-1.23,-0.34,0.39,1.36,-0.74
"ex2915",0.16,0.63,-0.94,1.38,1.73,2.57,4.61,4.65,3.78,3.99,4.56,4.30,4.65,3.67,3.34,1.19,-1.04,-0.29,-0.38,-1.47,0.58,-0.97,-0.24,-1.29,-1.53,-0.10,-0.21,-0.15,0.09,-1.64,-0.94,0.93,0.08,-0.01,1.27
"ex2916",-1.12,-0.01,0.23,1.79,0.76,1.48,2.71,3.38,2.69,5.93,4.59,3.82,4.48,3.07,0.35,0.91,-0.88,-0.03,0.35,2.11,-0.33,0.68,-0.59,0.59,1.54,-0.80,-0.41,0.86,-1.57,-0.24,2.15,0.15,-0.77,-0.09,0.52
"ex2917",-0.62,-0.45,0.20,-0.42,1.68,-0.08,2.10,4.00,5.59,3.21,5.02,5.23,4.00,4.04,2.79,2.81,1.77,1.04,0.59,-0.58,-0.83,0.06,-1.16,-1.41,-0.14,-0.56,1.57,0.59,0.06,0.48,-0.86,-0.63,1.61,-1.78,-1.19
"ex2918",-1.82,0.39,-1.27,-0.65,0.39,-0.71,-0.33,2.06,1.79,1.59,4.81,4.01,2.99,2.25,4.88,3.82,1.36,2.57,3.17,2.20,1.23,-0.13,-1.32,0.15,-2.58,0.92,-0.46,-0.12,0.59,3.16,-0.69,-0.97,-0.12,-0.22,0.43
"ex2919",0.15,-1.16,-0.72,-1.33,-1.13,1.50,3.00,0.99,1.77,3.28,5.22,4.84,2.15,4.53,1.55,3.94,2.99,0.60,-0.19,0.74,0.42,1.55,0.45,0.54,2.26,1.30,1.32,-0.47,-0.35,0.39,-0.75,2.38,-0.08,-0.16,0.52
"ex2920",-0.34,0.58,1.40,1.55,1.05,3.84,3.83,1.92,4.61,4.82,6.20,3.76,3.36,2.95,1.02,-1.16,2.05,-0.72,1.01,-1.29,0.97,-0.38,-1.62,0.37,0.43,0.72,0.71,-0.29,-0.10,-2.48,-1.06,0.75,0.14,-1.03,0.20
"ex2921",-1.23,-1.42,-0.53,1.49,-0.23,-0.30,1.26,2.93,3.56,4.23,6.93,6.72,2.95,3.81,1.94,0.51,-1.19,0.01,-0.65,0.84,0.57,-0.47,1.13,-0.14,0.15,0.86,-0.65,1.62,-1.06,-0.84,0.06,0.16,-0.52,-0.82,-0.65
"ex2922",0.35,0.13,0.75,1.17,0.95,1.44,2.33,3.73,3.55,5.04,4.58,4.20,3.82,2.94,3.59,0.62,0.54,1.84,-0.90,0.64,1.22,2.87,-0.41,-0.55,-1.03,0.07,-1.05,1.36,0.77,0.74,-0.24,2.61,1.53,-1.01,-0.88
"ex2923",-0.07,-0.72,0.02,-0.87,-0.39,-0.51,3.06,0.16,1.41,1.81,0.73,3.87,4.32,3.52,5.38,4.92,2.57,2.16,2.33,0.84,1.01,-0.95,0.65,0.15,1.89,-0.47,2.24,-1.40,0.03,-1.18,0.61,0.67,-0.59,0.31,0.39
"ex2924",0.42,-0.89,-0.07,1.16,3.09,5.57,5.13,5.49,2.66,1.93,2.83,0.99,-0.41,2.54,0.12,-0.14,-1.44,0.64,0.81,0.50,-1.86,-0.76,-0.54,0.77,-1.50,-1.16,1.70,-0.63,-0.99,1.13,-1.45,1.06,-1.43,-0.39,-0.19
"ex2925",1.78,-1.89,1.72,-2.03,1.04,1.32,0.93,1.53,0.70,3.67,4.55,5.35,3.42,1.78,2.17,3.59,2.24,1.71,2.57,-1.74,-0.70,2.68,-0.26,-0.13,1.02,2.02,-1.96,-0.50,0.02,-1.20,0.74,1.36,0.63,-1.29,1.03
"ex2926",-0.10,-0.46,1.33,1.72,2.53,3.29,0.75,1.39,2.27,0.20,2.17,1.73,2.85,3.47,3.34,4.68,2.23,3.64,2.93,0.80,-0.25,0.07,-0.64,0.64,-0.58,-0.15,0.08,2.06,1.55,-0.02,-0.23,-1.03,-0.28,-0.07,-0.63
"ex2927",0.04,1.38,4.28,3.58,2.17,4.37,4.61,5.33,3.00,4.35,2.22,0.85,1.14,-0.06,-1.10,0.73,-2.44,1.07,-0.18,-3.09,0.55,0.37,1.29,-1.58,0.02,1.19,-1.30,0.59,-0.06,-0.87,0.55,-0.29,-0.28,0.15,0.89
"ex2928",-1.19,0.31,1.94,1.14,1.67,2.82,4.28,3.66,5.33,4.55,2.84,4.10,1.15,0.19,1.56,1.00,-1.40,0.69,0.62,-0.64,-0.94,-0.10,-0.00,0.03,0.79,0.37,1.67,-0.53,-0.95,0.84,0.70,0.99,-1.20,-0.04,0.31
"ex2929",0.21,0.70,0.07,1.80,2.20,4.42,4.53,3.12,5.24,1.38,4.00,1.88,1.75,2.03,0.57,2.67,1.02,0.53,0.83,-0.25,0.03,0.54,-1.00,-0.77,1.00,-1.35,0.28,-0.56,1.31,-1.91,0.36,1.00,-0.79,0.94,-0.33
"ex2930",0.41,0.92,2.85,1.28,2.06,3.74,2.29,0.91,1.34,1.55,2.19,2.44,2.71,2.97,2.21,1.51,2.29,2.43,1.20,0.27,-0.16,2.18,-1.95,0.07,0.21,0.06,1.41,0.00,0.04,-0.46,-0.20,-0.25,-0.92,1.34,-0.81
"ex2931",2.27,-0.59,0.29,-0.23,-0.30,1.48,2.43,4.93,2.54,6.14,6.06,4.34,3.80,1.75,0.64,0.54,-1.34,1.54,1.07,0.68,-0.58,1.12,0.77,-1.55,-0.90,2.06,0.05,-0.79,-0.42,-0.41,0.10,0.43,-0.48,1.97,-1.37
"ex2932",1.52,0.90,1.34,3.17,4.50,6.33,4.71,4.34,4.19,1.62,2.20,-0.52,0.80,-0.79,0.75,-0.40,1.47,0.85,-1.36,-0.07,-1.53,1.12,0.03,0.50,0.14,1.25,0.31,-0.46,-1.26,-0.49,0.09,-0.74,-1.37,-0.76,-0.22
"ex2933",0.90,1.06,1.80,-0.51,0.79,2.64,1.96,3.59,1.35,4.56,3.94,4.28,3.55,3.73,3.34,2.90,1.98,0.51,0.08,-0.56,1.07,-0.50,1.76,-0.38,-0.90,0.36,-0.80,-0.41,-0.78,-0.62,-0.94,-0.40,0.87,0.61,-1.08
"ex2934",-0.05,1.57,1.66,2.63,4.58,5.38,5.85,4.70,4.81,3.72,1.03,1.87,0.04,-0.12,-0.74,1.39,-0.10,1.30,-0.82,-0.32,0.24,-1.74,-1.05,0.66,-0.40,1.67,0.27,-0.53,-0.21,-1.08,1.61,2.23,0.74,-0.73,-0.92
"ex2935",-0.58,-0.86,-1.00,0.79,-1.10,-2.06,0.64,0.11,1.84,3.64,2.63,1.85,4.45,3.08,3.78,3.22,3.50,2.05,0.55,-0.82,-0.88,-1.55,-0.37,1.29,0.49,-0.76,-0.31,-0.01,0.78,0.66,1.55,0.91,0.46,0.90,-0.81
"ex2936",-0.23,-0.47,0.37,-0.51,0.81,-0.85,1.62,-0.24,-1.00,0.27,2.16,4.59,5.18,4.62,4.97,3.43,2.47,1.04,2.42,1.47,-1.28,2.06,0.04,0.38,-0.79,0.42,0.45,-1.06,-1.00,0.38,-1.39,2.72,-0.00,-0.15,1.15
"ex2937",0.27,1.52,1.10,0.62,0.87,0.74,0.90,0.43,2.37,1.86,4.60,4.11,5.16,4.59,5.70,7.34,3.16,1.93,0.60,1.89,-0.85,-0.28,1.63,1.37,0.27,-0.39,1.20,1.20,1.42,1.17,0.72,1.19,0.46,-0.36,-0.44
"ex2938",-0.63,0.47,-1.31,0.72,0.99,2.61,4.46,5.41,4.25,4.83,5.96,3.65,2.11,2.75,3.55,0.30,1.41,0.91,1.43,-0.03,-1.48,-1.39,-0.05,1.63,1.57,-1.13,0.60,-1.03,-1.09,0.11,0.96,0.28,0.59,-0.18,-0.93
"ex2939",1.20,0.62,-0.72,-0.08,0.40,0.33,0.92,1.25,0.51,1.88,3.48,3.05,4.03,3.43,5.35,3.70,3.32,2.89,1.66,0.36,0.39,-0.97,1.56,-0.31,0.82,-0.14,0.38,-0.09,-1.43,-0.48,1.83,0.10,-0.92,-0.68,0.76
"ex2940",1.41,-0.91,0.97,0.21,-1.62,1.83,0.34,1.03,2.82,2.91,4.78,2.88,4.35,4.96,3.92,0.85,2.83,2.13,-0.52,1.28,-0.60,-1.75,-1.74,-0.97,0.48,1.79,0.42,0.09,-1.11,0.72,-0.21,0.21,1.78,-0.75,1.49
"ex2941",2.10,1.24,2.67,1.56,4.82,4.01,7.07,2.89,2.27,3.53,1.52,-0.86,-0.51,-2.20,1.95,-0.24,-0.52,-0.47,-0.30,1.44,-1.65,-0.68,0.28,-0.16,1.46,-1.03,0.04,-0.50,-1.35,0.31,-1.08,-0.28,-1.46,-0.01,1.59
"ex2942",-0.15,-0.26,0.85,0.92,-0.08,-0.61,2.38,3.59,2.71,3.72,5.75,4.32,5.54,2.98,1.67,0.20,2.01,-0.45,0.16,0.58,0.39,-0.79,-0.75,-0.98,1.04,0.44,-0.67,0.94,0.75,1.06,-0.60,-0.14,0.48,0.52,-1.68
"ex2943",-0.30,0.47,0.82,-0.63,3.89,2.38,3.80,4.87,3.73,3.34,1.71,1.94,1.26,2.47,1.90,3.29,1.63,0.50,-2.23,3.46,-0.05,1.02,-0.84,0.70,-0.32,0.48,-1.08,2.82,-1.33,0.43,-1.98,2.83,0.31,0.39,-0.79
"ex2944",1.69,0.28,0.78,0.85,1.46,0.76,3.58,3.48,3.09,3.88,6.09,2.91,3.33,2.75,2.72,0.55,0.39,-2.59,-0.30,0.85,-0.94,-2.21,1.75,0.03,2.16,-2.07,2.56,-0.72,-0.21,-0.41,1.34,1.24,-0.94,1.28,-0.38
"ex2945",-1.42,-0.70,1.82,-0.80,2.14,3.16,4.84,5.15,3.36,1.93,3.04,2.78,1.39,2.20,1.55,0.63,-0.71,-0.06,0.81,0.11,0.05,1.32,0.79,1.42,-1.48,-0.81,1.02,1.96,-0.30,2.03,-0.31,-0.62,-0.40,-1.12,0.99
"ex2946",0.09,1.63,-0.02,0.80,0.23,0.22,1.85,-0.47,1.32,1.84,0.61,2.89,3.81,5.22,5.83,4.09,4.07,2.31,2.60,-1.27,0.60,-0.63,1.50,1.20,0.34,-0.22,-2.29,-1.71,-2.15,-1.26,0.86,-1.09,-0.24,-0.08,-0.05
"ex2947",-0.14,-1.73,0.52,1.42,-0.22,1.49,2.40,2.05,0.16,3.48,4.74,4.65,4.21,1.74,2.21,1.17,-0.04,1.05,-0.54,-0.40,-1.39,-0.05,-1.07,0.78,-0.27,-0.79,0.04,1.54,-0.56,-1.08,1.09,0.94,1.25,0.33,0.85
"ex2948",-1.39,-1.57,0.74,0.21,0.79,0.77,2.74,1.60,5.18,4.49,6.12,4.66,4.38,4.32,2.67,0.77,0.28,-0.16,0.05,-0.29,2.02,0.22,-0.03,-0.22,-0.74,-0.59,1.34,1.72,2.82,0.73,-0.63,-0.51,1.46,2.26,0.65
"ex2949",-1.20,0.42,-0.97,1.22,0.69,0.84,0.37,1.43,3.13,2.19,5.59,5.09,5.63,3.43,3.02,4.57,0.71,1.26,1.97,-0.91,-0.49,-1.27,0.37,1.01,-1.73,1.26,-0.12,-0.82,-1.58,-1.04,1.28,-0.29,1.48,-0.07,0.55
"ex2950",-0.93,2.28,0.81,1.53,2.81,3.26,4.62,2.83,2.60,4.12,4.93,2.33,0.37,2.21,1.59,0.93,0.07,-0.43,-0.63,-0.51,-0.63,0.74,-0.03,-1.42,1.69,-0.21,0.43,-0.00,-1.07,-1.65,-0.50,0.84,0.60,-0.32,-2.42
"ex2951",1.02,0.89,1.62,2.85,2.65,4.19,5.24,3.93,1.62,2.75,3.48,1.66,1.21,2.48,1.73,1.18,0.68,1.61,1.15,0.18,-0.12,-0.98,-1.21,0.39,1.33,0.05,-0.60,-1.29,0.58,0.84,0.17,-1.11,2.37,-2.53,0.40
"ex2952",1.95,0.57,0.50,0.25,0.20,1.21,2.02,0.00,-0.63,2.03,0.10,1.82,4.94,2.88,6.15,3.88,4.12,1.75,3.03,2.15,-0.10,-1.00,-0.88,-1.48,0.32,-0.25,-0.01,-0.32,-0.13,-1.00,0.09,0.44,-1.24,-0.69,0.16
"ex2953",-0.23,1.73,1.25,-0.66,0.99,-0.73,0.51,0.62,0.65,1.77,2.36,3.35,4.75,2.68,3.53,3.26,1.97,2.70,1.40,1.50,0.60,-0.54,0.56,-1.07,1.65,0.86,0.71,-0.52,1.84,-1.62,-0.08,-1.37,-0.33,1.70,-1.29
"ex2954",-1.45,-0.07,-1.01,0.57,0.26,1.45,1.80,1.17,4.56,4.22,8.19,5.11,3.27,2.60,1.79,2.76,0.33,0.09,-0.54,-0.04,1.00,-2.81,-1.17,-0.94,0.16,1.62,0.61,1.05,-1.95,-0.99,-2.34,-2.37,0.19,-0.57,-2.42
"ex2955",-0.13,-1.04,0.92,0.94,-0.24,2.66,1.81,1.90,2.56,2.30,4.37,3.42,4.90,5.47,2.92,1.92,0.85,2.43,0.14,1.60,-0.87,0.58,0.86,-1.74,-1.46,-0.52,0.70,-0.65,-1.85,-0.21,0.21,-0.03,2.39,0.91,0.64
"ex2956",-0.28,0.55,1.22,1.55,2.83,1.74,4.39,4.33,6.18,3.28,2.98,1.24,1.27,0.58,0.27,-0.83,0.30,2.03,1.27,0.65,2.12,1.06,1.79,-1.07,-0.07,-0.59,0.49,-1.10,1.61,-0.38,-1.17,-0.52,0.51,0.35,-1.22
"ex2957",-0.34,1.67,1.18,2.83,3.73,4.06,5.49,3.65,4.71,2.78,1.36,-0.26,-0.69,0.63,-0.21,-0.53,0.51,-0.39,1.99,-2.52,0.38,0.40,1.04,-0.76,2.49,0.69,-1.81,0.06,0.14,-0.45,-0.89,-0.96,-0.56,-0.75,-0.28
"ex2958",-1.82,1.18,-0.79,0.70,3.97,4.22,3.61,5.15,4.04,2.88,2.70,-0.86,1.98,2.00,1.86,0.95,-0.47,0.14,-1.44,-0.34,0.30,1.53,-0.23,-1.46,-0.50,0.01,0.14,0.64,-1.09,0.34,-0.06,0.91,2.11,-0.61,0.53
"ex2959",-0.83,-0.66,-0.26,0.53,1.60,0.93,1.49,0.50,1.68,3.21,3.98,6.06,2.64,3.88,1.54,2.37,2.04,0.26,2.25,0.94,-0.05,0.46,-0.65,-1.30,-1.13,-0.04,-0.98,-0.99,-0.07,-0.01,0.48,1.49,-1.47,-0.45,1.06
"ex2960",-0.90,1.59,1.70,1.84,1.61,2.78,5.59,2.35,3.95,2.06,3.68,0.16,0.37,1.39,2.11,2.20,1.17,0.63,0.88,-0.46,0.03,0.04,-1.56,0.75,-0.97,-2.54,-0.66,1.08,-0.67,1.26,0.70,2.08,0.72,-0.37,0.07
"ex2961",-0.01,-0.53,1.18,0.69,2.13,2.99,4.82,4.39,4.55,4.70,4.05,1.76,2.44,4.16,1.82,-2.38,-1.15,0.29,0.27,0.90,0.16,-1.35,-0.60,1.87,-0.09,0.74,-0.28,-1.26,1.10,-0.46,0.02,1.38,-0.23,-1.03,0.88
"ex2962",1.78,-0.18,0.11,1.73,2.09,3.89,3.22,5.22,2.78,1.98,1.38,1.07,0.70,0.52,2.44,2.45,-0.24,-0.01,0.88,1.03,-0.39,-0.60,-0.60,-1.05,-1.11,0.83,-0.43,0.70,0.10,-0.31,0.30,0.66,-1.49,0.34,-1.04
"ex2963",-0.96,0.70,2.96,2.74,4.00,2.77,4.43,2.73,3.82,1.92,2.16,0.71,2.45,1.67,1.68,1.10,2.00,0.01,2.49,-0.97,-1.25,-0.53,1.04,-0.18,-0.19,-0.81,0.04,0.08,1.13,-0.68,2.41,2.03,-0.00,-2.63,0.41
"ex2964",-0.50,-0.48,-1.51,0.50,-0.73,0.74,-0.11,0.75,-0.79,0.26,3.53,3.71,4.02,3.31,5.70,3.01,1.44,2.70,0.31,1.36,0.25,0.52,-1.47,0.16,-0.87,1.33,0.92,-1.13,0.60,-1.55,0.08,1.79,-0.04,0.85,0.84
"ex2965",-0.27,-0.55,0.81,0.01,1.01,0.16,0.53,1.11,2.05,4.38,2.80,3.90,5.04,3.26,2.68,3.55,2.83,0.17,-0.13,0.31,0.12,-0.84,0.08,0.59,0.67,-1.25,0.76,-0.68,0.06,-1.16,-0.73,-1.48,0.12,0.92,-0.17
"ex2966",1.05,0.66,0.79,2.16,5.43,4.15,5.43,4.99,4.48,2.63,3.03,2.06,1.93,0.32,0.77,-0.82,-1.41,-1.16,-0.65,0.39,-0.27,-0.16,2.03,-0.73,-1.47,0.69,-1.21,-0.06,1.21,-1.98,0.50,0.75,-1.66,1.22,-0.63
"ex2967",-0.04,0.95,2.60,0.41,1.90,-0.26,0.72,3.32,2.28,4.37,5.85,3.11,2.22,4.27,0.81,-0.07,-1.59,0.87,-0.20,-0.55,-0.16,0.12,-0.50,-1.17,-0.30,0.98,0.52,-1.61,0.41,0.27,1.96,0.27,0.36,0.13,0.37
"ex2968",0.85,0.68,0.90,2.05,1.00,1.48,3.38,5.18,3.12,4.12,4.18,2.58,4.33,2.33,1.41,-0.14,0.91,-0.03,-1.23,-0.32,-0.27,0.47,1.48,0.21,-1.11,0.06,1.02,-0.01,-0.46,0.97,1.12,1.86,-1.20,0.28,0.69
"ex2969",0.68,0.94,-2.08,2.69,1.73,3.56,4.82,3.86,5.33,4.93,4.19,3.86,1.77,4.14,1.28,0.96,0.11,-1.01,-1.85,-1.76,-0.58,-0.45,0.04,-0.52,-0.44,-0.73,2.63,-1.16,0.71,0.05,-0.02,1.01,0.29,0.10,-0.94
"ex2970",0.83,0.56,0.49,0.47,2.36,1.70,4.15,4.09,1.30,2.98,4.59,1.66,2.46,0.81,1.30,0.44,0.69,-1.11,0.03,0.48,0.49,0.14,-1.14,0.35,-0.68,0.08,0.75,-0.16,-0.18,1.39,-0.54,-0.35,-0.74,0.74,0.82
"ex2971",-0.28,-1.78,1.27,0.70,0.49,-1.81,1.19,0.63,1.27,0.52,0.70,3.12,1.62,3.77,5.77,4.23,4.29,4.74,0.64,0.64,-0.14,-1.14,0.52,0.58,0.10,1.60,-0.18,-0.30,1.09,-0.75,-0.14,-0.64,1.63,1.19,-1.06
"ex2972",0.86,2.22,-1.42,2.01,3.22,6.24,5.37,5.09,4.16,4.09,2.99,1.70,0.85,2.16,1.34,1.22,0.65,0.94,-0.07,0.22,0.35,-0.09,1.40,-0.31,0.43,0.28,0.35,-0.04,0.22,1.46,0.10,-0.89,-2.32,0.31,-1.47
"ex2973",-0.38,-2.03,1.66,0.55,0.85,-0.74,0.79,3.08,0.55,3.71,3.82,5.61,4.30,4.13,5.20,2.52,0.81,1.13,1.11,1.10,-2.07,0.05,-0.06,2.22,0.76,0.97,0.49,1.13,-0.26,-2.05,0.73,1.42,0.29,0.95,0.82
"ex2974",2.00,-0.55,0.39,0.83,-1.35,2.22,1.77,0.44,-0.03,2.28,1.80,3.56,4.31,4.76,6.79,4.64,1.61,3.19,2.04,0.65,0.76,-0.02,0.45,-1.08,1.24,-0.03,-1.69,-1.08,-2.26,-1.13,-0.32,-0.15,-2.17,-0.72,-0.42
"ex2975",-0.78,0.92,1.91,0.69,0.82,4.75,1.27,2.00,1.09,3.62,2.86,2.06,1.52,2.46,3.89,2.89,1.41,2.96,1.74,0.50,0.50,-0.15,-0.17,-0.70,0.02,-0.44,-0.61,-1.09,-1.32,-0.05,0.13,1.09,1.97,-1.13,-0.40
"ex2976",0.11,-0.45,1.08,0.57,1.53,1.10,3.13,3.90,3.16,5.20,4.70,3.83,2.82,4.17,1.56,-1.66,-0.37,-3.14,0.10,-0.10,0.43,0.71,0.41,1.76,0.15,-1.04,-0.40,0.22,0.41,0.72,0.42,-0.58,0.31,1.25,-0.64
"ex2977",-1.44,-0.72,-0.21,-0.34,1.58,1.58,2.51,4.55,2.34,4.32,5.40,5.41,4.07,3.83,0.38,1.43,-0.03,-0.16,0.63,0.15,0.32,0.12,2.25,0.08,0.71,0.92,-0.40,0.25,1.01,1.08,1.23,-0.11,0.37,-0.17,1.24
"ex2978",0.44,0.36,0.38,4.47,2.38,4.14,5.44,4.24,4.15,2.29,2.66,1.96,1.16,3.42,-0.27,2.08,1.97,1.45,0.40,0.92,0.81,0.91,1.35,2.09,-0.48,-0.78,-0.00,-1.51,-1.47,-0.15,-0.78,-0.27,1.28,-0.12,-0.44
"ex2979",-0.27,-0.42,2.53,0.69,2.51,2.53,3.59,4.39,3.62,3.18,4.03,2.43,3.28,1.62,1.10,-0.24,-1.36,-1.90,1.01,0.38,-0.43,0.30,-0.62,-0.91,-2.35,-2.25,0.34,1.39,0.17,-0.11,0.82,0.82,-0.34,0.37,-0.62
"ex2980",-0.40,-0.14,0.99,2.77,2.87,3.70,4.62,3.65,2.93,0.97,-0.16,1.59,1.19,-0.45,2.05,1.16,2.30,-0.92,1.60,-0.35,-0.23,-2.61,-1.20,0.86,0.46,-0.43,1.79,-0.65,-0.61,-0.02,0.50,-0.33,-0.03,0.57,0.50
"ex2981",1.24,0.08,1.14,2.12,0.77,3.26,3.59,4.75,4.00,1.61,0.70,1.20,1.49,3.54,2.85,2.09,2.32,1.20,1.08,0.68,0.14,1.29,2.09,-0.99,-1.71,-0.48,-0.56,-0.30,-1.24,2.28,-1.90,-1.55,1.25,-0.48,1.40
"ex2982",-0.68,-1.15,1.23,2.02,-1.26,-0.89,1.97,1.63,3.04,2.50,3.38,3.51,6.12,4.60,3.62,3.01,3.00,0.97,0.45,0.07,-0.11,0.95,-0.05,1.17,1.46,0.06,0.13,0.40,0.35,-0.36,-0.12,-1.37,-0.07,0.91,-1.59
"ex2983",-0.17,0.14,-0.01,3.50,2.11,3.47,5.16,5.53,3.67,4.28,2.53,0.82,0.75,-0.11,-1.61,-0.81,1.78,2.67,0.89,1.45,-1.17,0.03,-0.52,-0.04,1.03,-0.76,0.73,-0.58,-1.36,1.84,-2.15,1.34,1.08,-2.93,0.79
"ex2984",0.32,0.41,3.01,2.92,3.48,4.89,6.38,3.10,4.15,3.47,2.75,3.85,1.72,0.28,1.40,1.74,-0.82,1.65,0.11,-1.25,-0.27,-0.39,0.26,1.09,1.97,0.19,-0.44,1.49,0.70,1.92,-0.16,-1.55,-0.67,0.22,0.15
"ex2985",1.13,0.47,0.82,-1.09,0.63,2.64,1.57,1.75,5.00,3.64,4.43,6.30,1.30,2.34,3.08,3.51,0.19,1.98,-1.27,1.70,1.03,0.80,0.61,0.16,-0.06,0.44,0.52,-0.61,0.82,-1.44,0.51,0.96,0.38,0.40,-0.97
"ex2986",-0.95,0.45,0.13,0.89,3.06,2.53,3.51,3.03,3.25,2.59,2.24,0.43,1.46,0.90,2.06,1.29,0.04,0.89,-0.20,1.12,-1.32,0.10,-0.37,-2.23,-0.72,-0.19,-0.09,-0.46,-0.43,-1.23,-1.64,1.03,-0.20,1.53,0.37
"ex2987",1.66,1.46,2.71,-0.04,-0.94,1.62,-1.12,1.96,1.47,2.69,2.75,3.03,4.26,4.91,5.34,3.94,2.92,2.52,2.52,0.22,-0.26,0.48,2.00,0.21,1.46,-0.21,0.73,0.70,-1.65,0.09,-0.25,0.08,-0.57,2.24,0.27
"ex2988",1.26,1.13,2.14,1.93,4.53,4.79,5.14,5.21,3.04,3.89,3.54,0.72,-0.20,1.89,-1.14,-0.64,-0.01,-1.67,0.58,-1.12,0.60,0.43,0.73,0.12,0.01,0.04,-1.16,-2.70,-1.81,0.80,-1.81,-0.22,0.36,-0.75,1.41
"ex2989",-0.95,1.91,1.08,0.01,2.69,5.95,2.06,2.89,2.32,2.80,0.56,2.07,0.46,2.59,3.07,1.50,-0.13,3.51,1.10,0.36,-1.03,-1.11,1.01,1.26,-2.20,-0.16,0.23,-0.60,-1.32,0.01,0.66,-0.47,-0.56,1.04,0.72
"ex2990",-2.65,-0.79,1.15,1.18,0.39,1.76,3.31,3.79,5.17,4.83,4.90,4.76,3.90,3.39,2.35,1.33,0.86,0.52,-0.90,0.59,0.30,0.45,1.15,-1.82,0.97,-0.94,-0.42,-0.12,-0.30,0.34,-0.43,-0.04,0.04,0.36,-1.54
"ex2991",0.41,-0.43,-0.20,-0.68,0.93,1.08,-0.16,2.60,0.56,0.68,2.38,0.81,2.95,3.27,4.53,3.42,3.73,1.35,0.28,1.66,-1.29,-0.19,-1.38,-0.33,-0.69,-0.62,0.19,1.03,-0.13,-0.21,-0.05,-0.11,0.17,0.28,-0.55
"ex2992",0.72,1.87,-0.63,-2.80,-0.35,-0.53,-1.48,-0.98,0.97,2.93,2.63,2.54,4.66,4.06,5.19,3.24,4.53,3.12,0.79,0.51,-1.14,0.12,0.29,0.67,-0.24,2.99,1.14,0.99,0.31,-0.69,2.10,1.73,-0.06,0.17,0.42
"ex2993",-1.69,1.50,1.66,2.35,2.43,4.29,6.02,4.70,1.19,3.77,1.83,2.36,0.03,0.89,1.24,0.94,0.91,0.55,1.15,-0.65,0.51,0.21,-0.57,0.80,0.51,-0.24,0.92,-0.31,0.83,-0.29,-0.30,0.14,-0.57,0.06,0.51
"ex2994",-0.27,1.25,2.58,1.25,3.71,4.28,4.28,5.15,1.89,4.21,0.85,1.48,-0.05,-0.07,-0.33,-1.05,-0.93,0.19,-1.60,0.55,0.08,0.49,0.52,-1.52,-0.22,-0.76,-1.19,-0.28,0.24,0.22,1.82,-0.66,0.34,1.98,-1.14
"ex2995",-0.39,0.46,-0.41,1.41,-1.60,0.48,1.06,2.87,0.54,3.34,1.14,3.63,5.56,4.58,4.09,3.85,2.35,2.75,1.17,0.27,0.69,0.64,0.67,-0.83,1.21,0.43,1.93,-2.12,1.11,0.17,-1.15,1.57,0.61,-1.28,-0.72
"ex2996",1.46,1.65,1.67,3.28,1.83,1.73,5.12,4.43,3.82,4.25,3.89,4.36,1.08,2.99,-0.75,0.44,1.23,-1.48,1.56,-1.68,1.27,-0.52,-0.04,0.91,1.42,-1.28,1.59,0.74,0.31,-0.36,-1.22,0.53,0.46,0.76,0.07
"ex2997",1.00,-0.54,1.24,0.94,0.68,1.99,4.60,3.53,6.11,3.87,3.22,3.59,2.68,1.41,3.54,-0.35,-0.57,-0.42,1.62,-1.59,-0.49,0.01,-0.37,-0.43,0.40,0.19,-1.27,0.09,-0.56,0.10,-1.03,-1.83,-0.83,0.01,0.77
"ex2998",-1.34,-1.02,0.43,-0.36,0.16,0.68,1.68,2.37,3.48,2.88,3.25,4.33,3.27,4.59,2.12,3.64,1.48,2.64,0.62,-0.24,1.59,0.68,1.02,0.50,0.71,-0.64,0.24,-0.11,-0.32,-0.37,1.63,1.31,0.63,-0.81,-0.02
"ex2999",1.43,0.97,0.34,-0.89,2.73,0.67,1.51,2.69,4.81,4.13,3.82,5.33,1.13,1.41,1.96,1.96,-0.37,1.51,0.10,0.85,-0.01,-0.40,-0.13,1.39,-1.78,0.60,0.22,0.53,-0.04,0.46,0.13,0.57,1.19,1.29,0.49
"ex3000",-0.92,0.82,0.23,0.69,-0.40,2.22,1.44,0.83,1.96,3.69,3.59,3.24,4.30,4.66,3.20,3.70,2.39,1.87,0.51,-1.42,1.51,1.70,-1.57,0.20,-0.30,-1.24,0.13,-1.25,0.65,1.12,0.25,-1.18,-0.65,-0.77,-1.36
"ex3001",-3.01,0.33,1.99,0.80,1.78,3.68,2.81,2.72,-0.23,2.59,1.98,3.34,1.89,2.48,2.55,1.74,3.08,2.19,0.60,2.06,-0.21,1.92,0.53,-1.28,-1.13,-0.98,2.03,0.42,0.11,0.04,1.54,0.57,0.54,1.05,0.48
"ex3002",1.48,0.30,-0.32,2.43,0.71,4.29,1.91,4.82,5.32,4.20,4.06,3.71,1.49,1.42,0.21,1.04,-0.03,1.31,-2.00,2.17,0.11,0.67,0.44,1.89,0.69,-0.91,-0.23,1.55,0.59,-1.80,0.34,0.34,1.19,0.94,0.43
"ex3003",-0.34,-0.13,1.19,0.82,-0.33,3.30,3.96,3.28,4.30,4.52,4.85,3.46,1.75,1.92,1.63,1.02,1.76,0.03,-1.17,-1.26,-1.84,0.50,-2.91,0.88,1.96,0.73,1.21,-0.49,-1.41,-1.05,-0.47,2.00,-0.73,0.47,0.62
"ex3004",-0.24,0.30,0.11,-0.33,0.94,1.98,3.83,7.20,4.61,4.68,3.99,3.61,2.51,2.39,1.54,0.96,1.21,1.05,1.28,-0.33,0.62,-0.65,-0.33,-0.46,-0.79,0.08,0.68,-1.21,-0.58,-0.73,1.81,-1.06,-0.47,-0.00,0.74
"ex3005",-1.56,3.32,1.82,4.81,2.67,4.19,6.73,3.40,5.08,2.62,1.01,2.18,-1.33,0.93,0.30,0.88,0.40,0.92,0.86,0.52,-1.91,0.82,-0.48,-1.16,-0.16,0.28,1.01,0.40,-1.13,0.19,2.00,-1.81,0.11,1.01,1.37
"ex3006",1.03,-0.36,-0.06,0.80,-1.13,-1.14,1.10,3.10,2.96,2.64,4.19,5.08,2.79,2.52,4.26,1.63,0.28,0.92,3.14,-0.47,0.31,-0.57,1.14,-0.17,-0.34,-1.27,-1.81,-1.31,-0.73,-0.14,0.56,-1.17,-0.76,0.08,2.28
"ex3007",0.70,0.09,-0.57,0.37,-1.53,0.49,-1.16,2.67,1.76,2.42,2.10,4.02,2.46,5.27,5.81,2.49,1.78,1.50,1.37,-0.79,0.48,1.51,0.17,0.38,-1.47,-0.40,-0.89,-0.80,-2.21,-1.28,-0.42,-0.27,-1.39,-0.48,-0.52
"ex3008",0.21,2.14,0.17,2.16,1.50,3.39,4.00,3.39,2.94,1.14,2.55,0.47,1.94,0.05,2.83,2.88,-0.11,3.26,2.16,-1.34,-0.32,0.45,0.80,0.88,1.52,-1.29,-0.14,-1.78,-1.16,0.34,-1.43,-0.88,-1.51,-0.19,1.00
"ex3009",0.37,0.75,3.02,2.83,4.48,4.13,5.99,4.61,3.57,2.47,1.52,2.56,0.13,-0.03,2.34,1.93,0.27,-0.41,-0.35,-0.97,0.69,-0.02,0.06,1.29,2.92,0.19,1.49,-0.34,-0.79,0.51,1.01,1.24,0.16,1.83,0.95
"ex3010",1.13,1.72,1.59,-0.70,2.05,1.83,1.57,0.76,3.86,2.71,1.61,5.38,3.46,3.06,2.78,1.25,-0.88,2.08,0.98,0.62,-1.54,0.48,-0.00,-1.51,0.42,-0.35,0.82,-1.03,-1.32,-1.19,-0.77,0.01,-2.44,-0.68,0.39
"ex3011",-0.59,-0.02,0.58,-1.05,0.62,-0.83,2.11,1.55,2.58,3.94,4.89,2.57,4.35,3.75,3.01,3.21,1.49,1.75,-0.19,0.43,-0.38,1.70,0.40,0.45,0.80,-0.76,0.37,0.68,-0.68,-0.32,1.02,-1.29,0.93,1.39,-0.95
"ex3012",0.81,0.28,1.00,0.96,2.01,4.92,4.73,3.73,4.99,2.10,-0.11,1.63,1.90,0.35,1.14,1.60,1.98,1.18,0.47,2.12,0.11,-0.29,-1.83,-0.61,-1.00,0.69,-0.32,-1.37,0.70,1.70,-1.07,-1.12,0.79,-1.94,-0.21
"ex3013",-0.06,0.22,-0.52,0.80,0.47,-0.26,-0.69,-1.22,-0.21,-0.70,0.55,3.40,2.59,6.09,6.28,3.16,3.82,1.14,2.37,-0.04,0.85,-0.53,-2.20,-0.23,-0.46,1.46,-0.45,0.32,0.13,0.20,-0.11,0.41,0.55,1.52,0.31
"ex3014",-1.18,0.10,0.23,-0.35,0.96,-0.18,0.73,0.41,1.04,1.58,3.30,3.79,4.43,3.42,5.09,4.58,1.22,1.32,3.47,0.70,-0.42,2.75,1.55,-0.42,0.85,0.05,1.05,-0.53,-1.38,-0.50,0.11,-0.25,0.18,-1.21,0.49
"ex3015",-0.87,1.19,1.85,0.56,3.15,3.24,4.65,4.44,2.23,3.33,3.88,2.98,3.64,2.31,-0.94,-0.63,-0.07,-0.95,-0.81,-0.41,0.10,-0.38,-1.21,0.22,0.48,-0.28,-0.63,-0.70,-0.41,0.08,-0.15,0.52,1.61,0.84,1.76
"ex3016",-0.86,-1.40,1.19,-1.91,0.08,2.53,3.68,2.10,2.07,4.33,4.25,3.13,2.33,0.27,0.16,2.43,-1.71,0.61,0.25,-1.51,0.02,-0.53,-0.98,-0.25,0.23,0.42,-1.13,-0.16,-0.64,0.92,0.57,-0.48,1.10,0.15,-0.14
"ex3017",-0.32,0.30,1.15,1.76,2.02,-0.97,2.02,1.11,4.16,3.40,4.68,4.34,4.56,2.86,1.83,2.64,0.35,2.29,-0.02,0.09,1.81,-0.93,0.84,-1.37,-2.09,0.73,1.60,-0.75,-0.01,0.37,-1.40,-0.95,-2.14,0.47,-0.43
"ex3018",0.87,1.06,1.03,1.56,2.74,2.65,4.63,4.68,4.74,0.57,-0.31,1.70,1.65,3.09,1.61,0.42,0.26,0.31,1.67,-1.08,0.06,2.05,1.43,-0.90,-1.74,-0.41,-0.77,0.53,0.20,2.43,-0.25,1.24,-0.39,-0.03,1.89
"ex3019",1.10,1.62,1.32,0.10,0.06,0.09,1.06,1.16,1.36,2.27,2.18,2.86,5.09,5.12,5.70,1.89,1.94,0.41,1.43,-0.24,-0.42,-0.14,-1.12,0.16,-0.22,-1.71,1.24,1.75,-0.16,1.05,-1.57,-0.63,-1.86,0.02,-1.12
"ex3020",-1.57,1.11,0.37,3.05,2.41,2.46,3.51,2.42,2.11,3.22,1.61,1.86,2.93,1.93,3.24,0.96,2.23,0.85,-0.41,-0.30,-1.09,-1.84,0.21,-0.33,-1.80,-0.80,-1.09,-0.71,-0.52,0.15,0.49,0.15,0.79,-0.03,0.60
"ex3021",-0.67,1.14,0.50,2.15,-0.05,0.50,-1.28,2.09,2.46,2.18,3.02,3.13,0.82,4.08,3.87,3.61,1.28,1.64,2.04,1.53,0.34,0.85,-0.68,0.99,0.78,-0.24,0.15,1.53,2.39,-1.92,-0.46,0.64,0.28,-0.39,1.05
"ex3022",-0.69,2.17,2.40,3.42,4.46,2.77,3.58,2.57,3.32,2.64,-0.46,2.63,2.00,3.57,3.24,1.24,1.88,1.88,-0.29,2.38,-0.59,-1.20,0.07,3.18,0.60,0.93,0.68,-0.02,0.12,1.08,1.11,0.06,1.13,1.72,-0.76
"ex3023",0.68,-1.16,0.83,0.80,2.26,1.61,1.92,2.12,1.26,1.73,0.88,4.17,2.78,1.31,2.47,5.47,1.61,1.07,2.13,1.23,-0.17,-0.64,-0.68,-0.67,0.59,0.28,-0.80,-1.01,-0.59,-0.44,1.96,-0.42,0.69,0.82,2.33
"ex3024",0.62,0.20,2.06,2.68,4.74,4.81,5.86,4.33,3.44,2.53,0.75,1.22,1.19,-0.36,0.99,0.81,-0.08,0.14,0.34,-0.66,1.25,1.49,-1.75,0.89,-0.30,2.79,0.46,0.27,-1.03,-0.76,-0.51,-1.06,-1.17,0.01,1.32
"ex3025",-1.27,0.47,1.28,0.13,-0.63,1.12,2.38,4.35,4.43,5.24,5.16,3.57,3.05,3.62,1.87,2.29,1.16,0.25,-1.35,1.19,0.81,0.17,-1.49,-1.66,-0.24,-0.33,0.78,-0.04,0.19,0.22,-1.11,-1.09,0.57,-0.49,1.29
"ex3026",0.96,-0.11,1.25,0.02,-0.04,-0.26,-0.14,2.31,1.27,2.64,-0.55,3.76,2.30,5.20,4.36,6.44,1.88,2.88,1.06,0.55,1.08,0.26,-0.95,0.41,-0.54,-0.91,-1.07,0.75,0.13,-0.45,-0.40,-0.48,0.68,-0.49,-2.22
"ex3027",-0.23,-0.88,0.51,-0.37,0.78,-0.25,3.04,2.92,2.78,1.86,6.40,5.07,3.81,3.06,1.79,-0.02,0.56,1.80,2.60,0.98,-1.23,0.17,-0.39,0.70,-0.13,0.61,0.71,-1.68,-0.84,0.46,0.90,1.49,1.19,0.36,0.49
"ex3028",0.44,0.56,-0.27,-0.36,0.76,2.90,4.09,4.53,3.85,5.38,3.94,4.64,2.27,-0.21,2.43,2.14,-0.23,1.02,0.17,1.59,0.96,-1.63,0.32,0.97,0.31,1.01,1.10,0.32,0.43,0.21,-1.04,0.94,0.10,0.04,-0.08
"ex3029",-1.85,2.99,2.52,3.65,2.60,5.26,6.20,6.36,4.59,3.10,1.25,2.29,1.70,0.63,0.67,-2.47,0.63,-0.79,-0.10,-0.35,-2.15,0.23,-0.49,0.15,0.77,-0.20,-1.51,0.20,-0.30,1.26,0.87,0.28,0.38,-1.02,-1.58
"ex3030",-1.50,0.50,2.63,4.22,3.51,4.81,6.86,6.01,5.18,4.08,0.33,0.88,-0.40,1.13,-0.07,0.28,1.29,0.91,0.92,0.49,-1.16,-0.35,0.31,-0.01,-0.56,1.00,1.49,0.27,0.67,0.03,0.24,0.68,0.56,0.18,0.65
"ex3031",-0.07,0.72,0.49,0.61,1.46,2.45,3.18,2.50,5.03,5.22,6.00,3.35,3.62,4.78,0.09,1.08,0.10,-0.68,-0.18,1.86,-0.71,0.94,0.39,0.43,0.06,-0.63,1.37,0.91,-1.10,-0.43,0.11,0.06,-0.57,-0.70,-0.79
"ex3032",-0.22,-0.83,0.37,0.23,0.86,1.57,3.72,0.53,1.05,0.90,4.23,2.40,3.95,3.90,5.38,4.18,5.00,1.29,1.42,-0.30,0.24,-0.94,0.76,-2.53,0.98,0.81,0.43,-0.39,-0.54,-1.15,-1.05,0.93,0.86,0.37,0.65
"ex3033",-0.74,0.42,-0.30,-0.24,1.54,0.78,2.57,2.06,1.54,4.27,5.69,4.31,4.55,4.92,3.08,2.68,0.29,0.46,1.56,1.79,-0.05,0.52,-0.31,0.49,1.17,0.05,0.55,1.18,-1.09,-0.67,2.11,1.13,0.91,0.47,0.62
"ex3034",0.09,1.74,0.86,-1.07,0.82,0.97,2.17,4.34,2.02,4.92,3.81,4.31,3.15,2.85,1.00,0.49,-0.90,1.26,1.47,-1.67,0.03,-1.84,2.03,-0.46,-0.44,-0.12,0.02,-1.79,1.22,-0.60,0.58,0.82,0.14,1.90,0.43
"ex3035",0.48,-0.98,1.34,0.38,-0.66,0.77,1.66,1.15,1.04,1.55,2.05,3.41,4.01,5.35,4.40,3.97,2.35,2.88,1.44,2.00,-0.55,-0.72,0.60,-1.99,2.05,-0.55,1.25,0.33,0.27,-0.13,-0.07,-1.53,1.35,-2.19,-0.22
"ex3036",0.24,-0.41,0.31,0.31,-0.97,1.28,0.69,3.50,5.16,3.54,6.77,5.32,4.12,2.12,2.29,2.25,-0.16,-0.28,-0.10,0.27,-0.18,0.81,-0.62,-0.33,-0.84,-1.29,1.20,0.84,-1.34,-1.55,0.17,0.94,0.74,-0.71,1.29
"ex3037",2.02,1.55,-0.49,0.04,1.33,0.58,4.81,4.22,3.60,5.74,4.48,3.10,3.00,1.23,2.56,-0.57,0.25,-2.09,2.35,-0.86,1.65,-0.13,-2.67,-0.78,0.78,1.08,1.05,-1.76,-0.98,0.41,0.36,-1.26,0.61,1.40,-0.89
"ex3038",1.46,2.18,-0.18,0.33,1.66,2.54,2.62,2.11,2.66,0.68,2.66,2.32,1.54,1.80,3.22,3.42,0.33,2.47,1.52,1.15,-1.51,1.83,0.52,-0.22,-1.06,1.21,-1.31,-1.49,-0.49,-0.92,-1.01,1.09,-0.88,1.79,1.18
"ex3039",1.16,-0.08,0.53,0.88,0.96,1.00,2.04,4.58,4.17,4.46,7.68,3.15,3.70,2.50,3.18,0.22,0.70,-0.80,-0.15,-0.86,-0.44,0.54,-0.04,-0.39,1.51,-1.25,0.72,0.25,0.60,1.28,-0.65,1.82,0.90,0.22,1.79
"ex3040",1.63,1.33,0.44,-0.38,0.84,1.13,1.70,2.74,2.81,1.13,2.98,5.25,3.61,3.09,2.86,1.11,1.84,0.75,0.46,1.76,-0.95,-1.16,-0.75,-0.16,2.14,-0.70,-0.95,1.83,0.50,-0.48,-1.89,2.68,-0.30,1.08,1.81
"ex3041",0.41,-1.12,-0.59,-0.82,1.20,-1.67,2.88,3.39,2.44,4.11,6.10,4.32,4.30,4.20,1.57,1.55,-0.27,0.04,0.04,0.60,0.78,-1.23,-0.60,-0.25,0.40,1.02,-0.04,0.40,-0.33,1.07,-1.22,1.74,1.99,-1.24,0.06
"ex3042",-2.19,-0.67,1.28,1.90,1.31,1.68,0.37,2.79,1.99,1.35,2.60,2.11,2.95,1.76,3.46,4.03,1.37,0.44,0.25,2.79,-0.22,-0.70,0.19,0.03,0.12,-0.75,0.73,0.45,1.73,0.02,0.51,1.05,0.26,-0.77,-0.46
"ex3043",1.98,0.35,2.82,4.33,2.44,2.93,5.21,3.88,4.31,2.70,1.49,0.89,1.50,1.54,0.05,1.25,1.82,0.45,-0.35,-0.04,-2.34,1.11,-0.90,0.34,0.26,-0.74,-0.18,0.91,-0.81,-0.61,1.24,-1.19,-1.07,0.91,-0.28
"ex3044",-0.53,0.81,0.06,1.49,-0.02,0.29,-0.22,-0.47,-1.64,1.25,2.20,6.12,4.12,5.63,7.13,5.09,3.59,3.40,1.46,2.23,-0.68,-1.28,-1.18,-0.90,0.12,1.38,-2.01,0.88,-0.45,0.08,-0.03,1.74,0.48,-0.55,0.82
"ex3045",0.65,1.97,1.26,2.73,2.15,3.06,4.02,3.03,5.16,4.87,4.27,1.84,2.02,1.50,2.82,0.96,-0.93,-0.27,1.20,-1.38,1.50,0.44,0.29,1.74,0.70,-1.26,-0.16,-0.49,-0.63,-0.55,-1.56,0.14,-0.66,0.55,0.50
"ex3046",0.44,0.18,-0.46,1.52,0.61,0.93,-0.99,0.64,1.35,2.79,2.90,5.92,2.07,3.85,4.98,2.21,4.02,0.47,0.22,2.27,0.79,0.38,0.66,0.97,-0.12,0.76,-0.15,0.85,-0.36,-0.62,-0.09,-1.15,1.24,0.35,0.75
"ex3047",3.18,-0.20,0.87,1.99,2.96,1.90,3.14,1.44,3.74,2.39,2.92,2.08,1.98,2.17,3.12,3.90,2.79,2.04,1.87,-0.78,0.20,-1.51,-0.20,-0.45,-0.55,-0.27,0.37,-0.37,-0.37,1.14,0.58,1.13,-1.13,0.76,-1.56
"ex3048",0.15,-1.05,1.38,0.59,1.28,1.21,-0.09,0.94,0.59,2.91,1.76,2.84,2.84,4.25,5.09,5.07,2.22,3.97,3.20,-0.22,0.47,-0.31,0.68,-1.54,-0.38,-1.77,0.75,-0.64,0.96,-1.42,-0.67,0.89,0.90,0.08,-1.34
"ex3049",0.83,-0.47,-1.20,0.43,2.14,3.38,3.83,0.69,2.42,1.08,0.47,3.49,2.47,3.80,4.48,2.17,2.01,1.04,0.60,1.22,1.62,0.98,0.84,-1.39,-0.13,-0.06,-0.32,0.12,1.68,-1.11,0.00,-0.04,-0.40,-0.24,-0.05
"ex3050",1.06,0.02,0.48,-0.04,0.98,2.46,0.84,3.73,3.12,6.25,3.99,4.15,4.14,4.24,1.52,2.35,1.56,0.34,-0.61,0.85,-3.64,0.53,0.51,-1.56,1.06,-1.51,1.16,-0.35,0.35,-0.90,1.56,0.03,-0.71,-0.47,1.10
"ex3051",-1.55,0.39,0.19,0.23,0.33,2.76,1.57,0.78,1.28,1.13,0.97,2.86,3.18,3.78,3.82,5.34,3.96,1.93,2.79,1.52,1.20,-0.33,-1.07,-0.37,-0.24,0.13,-2.68,-0.72,-1.48,0.64,-0.18,-1.65,-1.24,0.67,-0.88
"ex3052",0.67,0.55,1.70,1.13,3.18,4.99,6.61,5.12,2.69,1.22,2.29,1.96,0.59,0.32,0.10,1.31,0.42,1.39,0.99,-0.42,-1.33,-0.44,-0.57,2.20,1.60,0.65,0.27,-0.79,0.32,-1.81,1.74,-1.18,-2.51,0.84,-0.24
"ex3053",-0.05,1.47,-0.10,1.38,2.63,1.69,1.49,1.73,3.13,2.87,1.88,3.86,2.95,4.43,5.55,2.05,2.18,1.73,0.32,0.11,1.81,-1.80,1.56,-0.18,-0.95,-1.90,0.94,1.20,-1.14,-0.62,0.82,0.85,-1.13,-1.30,0.07
"ex3054",0.33,0.25,0.19,0.44,2.36,1.05,3.87,3.38,3.36,5.11,5.77,3.55,1.34,1.66,1.81,0.80,0.09,-1.76,0.83,-0.01,-0.07,0.34,-0.69,-0.41,1.08,0.97,0.45,-0.71,0.02,0.51,1.57,-0.49,1.38,0.24,-1.52
"ex3055",-0.34,-2.24,1.46,0.62,-0.47,0.44,0.12,1.38,5.06,4.26,5.82,3.63,4.83,2.95,1.88,2.75,-0.58,1.61,-1.98,1.33,-0.36,0.16,0.34,-1.19,-0.15,1.18,1.62,-0.10,0.99,0.27,-1.73,1.62,0.01,-0.68,0.96
"ex3056",1.80,3.45,1.49,1.45,3.04,4.67,5.13,4.18,3.78,2.72,1.40,1.61,0.23,0.87,1.63,0.38,0.91,0.95,0.17,-2.07,0.49,-1.73,-0.81,-0.40,1.90,-0.31,0.11,0.10,0.59,-0.83,0.27,1.38,0.20,0.09,-1.13
"ex3057",0.11,-0.43,0.38,1.16,0.48,2.17,1.25,3.50,5.25,5.42,4.54,4.15,3.37,4.22,3.80,0.46,0.41,1.85,-0.45,-0.94,0.58,-0.22,-0.00,-1.13,-0.06,-1.72,-1.05,0.84,-1.42,-0.51,0.35,-1.84,0.20,1.27,-0.51
"ex3058",-1.04,-1.50,-0.18,1.44,-0.88,1.54,1.37,0.96,0.40,2.57,4.87,4.67,3.34,4.52,3.56,4.13,3.30,0.23,0.61,-0.07,-0.82,-0.27,0.18,-0.52,0.40,-1.72,-0.57,-0.58,-0.54,1.79,0.33,-0.55,-0.53,-2.08,0.48
"ex3059",-0.78,-0.02,1.56,0.36,2.36,1.21,1.68,3.72,4.66,2.98,6.67,5.99,2.44,2.31,0.98,0.50,-1.05,-1.31,0.30,1.10,-1.76,-1.01,0.06,-0.08,2.15,0.74,0.70,2.50,0.68,1.66,1.53,-0.46,0.98,3.16,1.22
"ex3060",-0.23,1.39,-0.11,0.26,2.78,0.27,1.32,3.39,1.99,3.67,6.26,4.98,3.94,3.13,2.86,1.52,-0.12,-0.81,0.92,0.66,-0.60,-0.45,-0.33,2.23,-0.96,0.04,-0.11,-1.51,0.62,-1.25,0.06,0.54,1.63,-0.26,-0.00
"ex3061",1.00,2.89,1.69,2.49,1.34,3.35,3.83,5.96,3.14,4.16,1.74,0.83,0.32,-0.31,0.76,1.82,-0.49,-0.43,0.64,0.89,0.10,0.98,-0.59,0.77,2.45,-2.07,0.10,0.67,0.48,0.16,-1.44,-0.94,0.71,-1.05,-1.09
"ex3062",0.41,-0.41,-0.22,-0.15,-0.13,1.30,-0.86,1.19,-2.17,1.74,2.10,4.04,5.10,5.41,4.80,4.11,4.40,4.41,-0.22,-0.08,0.87,0.38,-0.92,-2.00,0.07,1.14,2.49,-0.51,1.23,1.12,0.02,0.50,1.03,-0.38,1.22
"ex3063",-2.45,1.67,-0.70,-0.88,3.71,2.27,4.12,4.22,2.66,2.76,5.00,3.35,0.59,2.62,0.90,1.32,-0.04,-1.16,1.89,-0.97,0.11,-0.34,0.80,0.65,0.59,0.94,0.15,0.75,-0.04,1.65,0.95,-0.24,0.58,1.63,-1.26
"ex3064",-0.31,-0.92,-0.14,-0.50,2.58,3.83,3.70,4.13,4.17,4.30,3.56,2.22,1.69,0.31,1.99,1.96,-0.04,-0.75,-0.63,-1.49,-0.67,0.56,1.69,-0.71,-0.33,1.65,-1.56,0.25,1.06,2.02,-0.28,-0.11,0.34,-0.65,0.24
"ex3065",-0.50,0.76,0.53,1.20,1.62,3.82,3.36,5.45,5.58,4.81,3.57,4.22,2.04,0.89,1.07,1.71,0.82,0.38,0.30,-0.16,-0.39,1.19,-0.20,-0.15,-0.11,0.46,-1.56,-1.03,-0.19,-1.33,-0.01,0.48,0.96,-0.25,-0.86
"ex3066",-0.02,-0.47,-1.50,-0.85,-2.25,-0.66,-0.70,0.51,0.95,2.22,4.11,6.04,4.83,4.73,7.67,1.91,1.09,0.95,2.23,-0.45,-0.08,0.80,1.49,-1.50,1.05,0.60,1.55,-1.26,0.86,-2.29,-0.18,-0.78,-1.14,0.20,0.45
"ex3067",-0.76,1.35,-0.18,0.91,3.40,3.95,4.78,3.99,3.09,2.33,3.03,2.75,0.57,0.13,-1.63,0.80,0.47,-1.01,-0.97,-1.01,-1.29,-1.09,0.66,0.63,-0.18,1.19,-0.44,0.55,-0.48,0.03,0.76,1.25,1.06,-0.64,-1.52
"ex3068",-0.67,1.59,2.32,1.03,2.88,2.31,4.36,3.51,2.04,4.30,2.76,3.25,-0.57,2.48,0.93,1.86,1.40,0.41,0.99,0.25,0.27,-0.14,-0.03,1.25,0.00,0.48,1.32,1.36,1.24,0.77,-0.76,0.28,-0.74,-0.79,-0.40
"ex3069",2.17,-0.86,-1.80,-1.68,0.37,-1.17,1.59,0.66,0.16,1.70,2.23,1.63,3.56,5.92,5.46,4.60,5.14,2.25,-0.71,1.16,0.41,1.07,-0.21,0.38,0.49,1.70,0.23,-0.27,-0.33,0.39,0.35,0.01,-1.66,-0.18,-0.05
"ex3070",-1.34,0.09,0.33,-0.28,1.37,2.95,1.74,5.42,4.29,4.30,3.98,2.04,1.86,3.39,1.79,1.17,0.78,-0.23,0.11,-0.98,2.05,1.37,-1.91,-0.10,-1.25,-0.79,-1.28,-0.17,-1.15,0.54,0.21,-1.74,0.79,1.31,1.20
"ex3071",-0.12,0.11,-0.31,-0.48,-0.66,-0.68,-0.33,0.27,-0.57,1.47,2.07,3.85,3.33,6.93,6.35,4.10,3.80,3.39,0.96,0.08,0.02,-1.12,-1.60,0.59,1.96,2.15,1.15,0.43,-1.26,-0.67,-0.88,1.69,-1.64,-0.47,-0.83
"ex3072",0.04,1.10,0.99,4.64,3.78,5.42,6.01,4.98,5.33,3.39,1.46,-1.50,-0.07,1.66,-1.05,-0.64,0.88,-0.36,0.69,-0.13,1.49,-0.03,1.02,-0.80,0.20,1.66,-0.26,0.67,-0.73,-0.88,-0.27,-1.43,-0.14,0.20,0.02
"ex3073",2.60,1.42,1.38,3.25,2.32,3.32,3.66,2.89,2.16,3.14,1.85,1.04,-1.44,0.78,-1.22,-0.22,0.86,-0.29,-1.27,0.32,0.21,0.77,-1.25,-0.23,0.26,-2.33,1.16,1.00,-0.90,0.59,0.17,-1.90,0.70,-0.74,1.05
"ex3074",1.96,-0.60,-0.73,1.40,-0.35,0.62,3.24,0.41,0.90,2.72,5.12,5.39,4.47,4.85,3.25,2.13,0.55,2.16,2.81,-0.30,0.59,1.07,-2.22,0.51,1.04,-0.92,-0.53,-2.25,0.11,2.26,0.02,0.87,0.17,0.68,-0.79
"ex3075",-0.35,-1.25,0.71,0.51,0.33,4.58,4.87,3.11,3.06,2.65,2.97,1.75,0.72,1.51,1.98,3.20,1.61,0.68,1.37,0.54,-0.91,0.61,0.60,-0.16,-0.44,-0.26,1.07,-0.02,-0.47,0.04,0.87,-0.76,-0.85,0.60,0.82
"ex3076",0.64,2.07,0.97,0.28,-0.36,-0.68,2.34,1.19,2.62,1.98,4.25,3.44,4.27,2.74,2.52,2.93,1.36,1.20,0.02,0.20,-0.25,0.07,-0.69,1.40,0.58,-0.87,0.77,0.88,1.07,0.25,0.27,-0.73,-1.49,1.19,0.52
"ex3077",0.16,0.59,-0.58,-0.37,0.48,0.94,1.34,3.32,3.81,6.84,6.05,3.82,4.13,1.86,1.70,1.99,0.43,1.83,-1.19,0.72,0.92,-0.29,0.41,-0.88,-0.77,-0.78,-0.01,0.89,-1.16,0.02,0.56,-1.13,-0.25,-2.22,-2.57
"ex3078",0.74,0.59,2.51,-0.48,1.79,1.79,2.96,2.03,1.01,1.17,-0.56,2.35,4.21,3.72,4.94,3.26,2.10,2.09,1.66,-0.01,0.45,-1.00,0.76,0.63,0.67,0.45,-0.86,0.10,-0.43,0.29,-1.37,0.32,-0.49,0.72,-0.86
"ex3079",0.61,-0.85,2.37,1.76,-0.76,-1.15,-0.62,0.99,2.58,0.00,3.13,2.31,4.65,3.82,5.81,5.87,4.79,0.63,1.94,1.17,-1.17,-1.98,-1.25,-1.40,0.11,0.28,0.76,2.84,-2.42,-0.35,0.61,0.85,-0.58,-0.51,1.70
"ex3080",0.24,-1.18,1.48,2.18,4.43,5.15,5.75,7.24,3.86,1.59,5.16,1.07,-0.59,1.08,1.96,2.08,0.13,4.21,-0.05,0.75,0.80,1.84,-0.70,-0.79,-1.13,-1.44,-1.10,0.79,-0.39,-1.17,1.39,1.43,2.17,1.17,-0.33
"ex3081",-2.53,0.38,-1.44,1.42,2.33,0.41,1.39,2.43,1.08,4.55,5.33,1.73,2.55,3.18,3.51,1.38,2.35,0.68,-1.01,-0.40,0.44,-1.09,0.26,1.48,0.36,-0.95,1.11,0.28,-1.76,1.41,0.95,-1.06,0.03,-0.81,-0.05
"ex3082",-0.89,0.62,0.03,1.50,3.95,6.55,4.02,6.30,2.73,4.35,3.68,2.56,2.22,-0.44,-0.69,-0.31,0.32,-1.65,1.36,-1.22,-0.24,-1.39,0.12,-2.13,0.14,1.98,-0.51,0.47,-0.31,-1.58,0.10,-1.38,1.73,0.83,-0.84
"ex3083",-0.22,-0.41,0.64,0.85,1.61,3.11,3.20,2.12,1.92,1.54,4.23,2.49,1.83,1.46,4.38,3.19,1.89,2.93,3.41,0.60,1.38,0.99,1.22,-0.43,0.77,-0.46,2.04,1.79,0.93,0.17,-0.29,-0.62,-0.28,-1.32,0.39
"ex3084",1.00,1.08,1.93,1.91,0.98,0.42,2.69,2.88,4.22,4.54,4.24,4.34,3.43,1.44,2.40,-0.31,0.53,-0.08,1.22,1.31,-0.09,1.47,0.65,0.73,-1.25,-0.05,-0.25,-0.49,1.16,0.24,0.58,-0.08,-0.93,0.09,0.95
"ex3085",0.62,0.38,0.96,1.16,2.67,3.91,4.04,4.25,3.68,3.48,4.15,2.67,0.74,2.40,0.98,1.66,-0.73,-1.31,1.87,-0.05,-2.00,-0.80,0.82,-1.71,-1.56,0.49,-0.64,-0.02,-0.31,0.26,-1.86,1.19,0.58,-0.09,0.42
"ex3086",-1.77,-1.68,1.36,2.14,1.38,2.01,2.56,3.09,-0.63,1.29,4.62,2.21,1.90,4.23,4.28,2.72,2.88,4.30,-0.24,1.13,-1.44,0.27,1.31,-0.16,-1.21,0.19,2.08,-1.52,-1.07,0.02,-0.16,-0.76,0.07,1.50,-0.12
"ex3087",-0.33,0.22,0.31,1.18,0.14,-0.33,0.94,0.56,0.00,2.68,1.72,-0.94,3.48,3.69,4.17,2.78,1.69,1.71,1.55,0.93,0.70,0.54,-1.23,-0.41,-0.60,-0.10,0.40,-1.10,-2.55,0.33,0.14,0.41,0.50,-0.39,0.49
"ex3088",-0.43,0.41,1.14,0.45,-0.62,-0.32,-0.93,-0.67,0.04,1.83,2.43,3.12,5.04,3.69,4.60,4.08,2.98,3.04,1.99,-0.15,-0.29,-0.66,2.86,0.56,-1.70,0.03,-0.39,-2.25,-0.82,0.16,0.69,0.38,0.58,-1.78,-0.82
"ex3089",-0.69,2.24,0.51,1.43,2.58,2.68,5.34,2.54,3.19,3.56,5.18,4.76,3.53,2.20,1.02,0.39,-1.49,-0.48,-0.12,0.02,-0.36,-0.00,-0.12,-0.24,0.76,0.82,0.80,0.52,-0.93,1.35,0.73,0.30,0.67,0.39,0.76
"ex3090",-0.76,1.33,0.04,1.74,1.47,1.87,5.23,5.21,6.56,4.96,3.89,2.86,4.12,2.50,1.66,-0.24,0.03,-0.75,-1.16,0.65,-0.13,-0.17,0.73,-0.34,-0.34,-0.90,-0.21,-0.55,0.49,1.17,0.50,0.17,-1.06,-0.08,-2.08
"ex3091",0.39,1.37,2.30,2.24,2.91,3.64,3.95,3.29,3.23,2.32,0.86,2.35,0.05,-0.01,0.77,2.19,0.11,1.08,-0.56,1.63,-0.19,1.18,-1.03,0.54,-0.33,-0.98,0.98,-0.72,-0.28,0.72,-0.34,-0.03,-0.10,0.13,0.57
"ex3092",-2.01,-0.57,-0.05,1.89,1.78,3.86,5.24,3.60,2.37,5.17,2.11,0.42,0.43,0.32,-1.56,-0.24,1.21,0.09,0.20,0.92,-1.25,-0.00,0.24,0.39,-0.16,-0.02,0.25,-0.08,0.51,-0.51,-1.25,0.57,0.76,0.83,-0.01
"ex3093",-1.06,0.24,-0.94,-0.40,-1.81,1.70,1.63,0.25,2.01,5.22,4.64,5.57,3.40,4.19,3.24,2.99,0.51,0.95,-0.36,0.52,0.71,0.30,-1.17,-0.35,-0.94,0.66,-0.24,-0.19,-1.50,1.39,0.95,-1.29,-0.22,1.06,1.29
"ex3094",0.64,0.78,1.08,0.47,2.61,4.88,4.14,5.03,5.33,1.87,2.49,1.13,-0.81,-0.41,0.82,0.77,-0.88,1.11,-1.57,-1.08,1.12,2.04,-0.26,0.37,-0.38,0.62,0.41,1.46,0.45,0.84,0.15,-1.28,-2.02,1.41,0.85
"ex3095",-0.25,0.80,1.69,2.26,1.06,-0.48,2.36,2.51,0.89,2.50,0.66,2.37,1.86,2.36,4.64,4.39,1.29,3.62,-0.40,1.46,-0.56,-0.42,0.63,0.05,0.00,0.81,-0.26,1.61,-0.23,1.31,-0.59,0.63,-1.57,-0.27,-0.75
"ex3096",1.63,2.26,0.41,-0.23,-0.91,1.91,3.10,1.05,0.19,2.70,3.82,3.31,1.35,6.65,4.24,2.96,1.94,1.83,2.08,-0.08,0.77,1.59,-0.07,0.41,1.07,1.73,0.28,-0.72,-0.53,0.86,-0.85,-0.28,0.28,-0.16,0.06
"ex3097",-1.18,1.27,1.81,3.06,0.14,2.63,0.82,3.25,2.33,2.13,2.61,1.53,0.99,2.15,4.17,3.62,1.30,2.46,0.73,1.26,1.27,1.28,0.53,0.61,0.62,-2.47,1.32,1.02,-0.59,-0.21,-0.36,0.09,0.31,-0.30,1.62
"ex3098",0.45,1.93,1.98,1.58,2.88,2.58,3.57,3.93,4.81,3.64,3.89,0.12,2.75,1.49,1.82,0.86,-0.66,-0.78,0.31,0.31,-0.56,-0.29,-0.25,0.20,-0.85,-0.34,0.21,0.04,-0.40,0.30,0.34,-0.58,-0.08,-2.01,0.15
"ex3099",1.08,0.88,0.63,2.47,3.51,2.68,5.93,3.13,4.03,2.27,-0.12,0.84,-0.58,1.46,0.49,0.17,1.88,-1.73,1.93,-0.58,-0.45,0.73,1.50,-0.46,-0.87,1.42,-1.52,1.44,-1.40,0.54,-1.24,1.02,1.57,0.82,0.15
"ex3100",-0.67,-0.56,0.80,-1.68,-0.36,-1.04,1.12,-0.00,-0.00,0.83,2.75,3.08,4.66,3.80,6.71,5.10,4.54,2.68,2.33,1.02,-1.08,0.22,1.32,-0.60,2.34,0.44,0.51,0.97,0.16,0.74,0.87,1.12,0.20,0.85,1.85
"ex3101",1.68,-0.43,2.58,2.57,2.23,3.82,3.41,4.08,3.92,1.42,0.62,0.69,0.31,1.25,1.91,1.61,0.87,-0.16,0.93,-0.25,-1.82,-0.27,-0.17,0.80,-1.94,-0.61,1.54,-1.28,0.33,1.43,0.98,0.28,-0.31,0.68,0.45
"ex3102",-0.80,-0.27,0.66,1.07,3.69,2.82,3.91,5.44,4.71,3.49,2.77,2.04,1.55,1.34,2.13,0.30,0.00,0.90,-0.20,1.41,-0.70,0.01,0.62,1.61,-1.17,-0.10,1.45,0.15,0.12,-0.25,1.11,-1.87,1.20,0.61,1.17
"ex3103",-0.37,0.07,1.19,0.22,0.27,0.13,1.24,1.05,0.83,0.83,1.96,3.14,2.88,3.58,6.02,3.33,2.40,1.31,1.88,0.58,-1.33,0.21,-1.01,-1.08,-1.49,-0.37,-0.26,0.82,-1.94,0.09,-2.59,0.63,0.42,1.19,1.26
"ex3104",-1.01,-0.71,0.10,1.09,-1.73,-1.41,-0.77,-0.54,0.45,1.78,1.75,4.71,4.59,4.60,4.33,4.57,3.37,2.26,3.81,-1.08,0.08,-1.08,0.06,0.04,0.25,0.27,-3.17,0.69,0.32,0.33,-1.69,0.85,-1.12,1.72,-0.41
"ex3105",0.07,1.04,0.49,2.84,3.38,2.89,4.34,6.07,2.48,2.38,0.63,0.64,0.57,2.37,4.14,-0.09,0.98,-0.13,2.46,-0.58,-1.85,1.15,1.26,-0.54,0.59,-0.15,2.19,-0.54,0.09,0.43,-1.34,-0.06,0.78,0.56,0.49
"ex3106",0.33,0.61,-0.12,-1.34,0.73,1.39,1.53,2.64,1.85,4.62,4.50,4.99,2.74,4.15,3.15,2.11,1.03,-0.13,1.45,0.67,1.09,1.36,0.49,2.32,-0.14,0.25,-0.66,0.09,0.58,1.50,0.10,0.66,0.73,-0.79,-0.82
"ex3107",-0.48,-1.35,2.56,3.43,1.50,4.90,4.26,0.59,4.06,1.91,3.41,2.79,1.77,1.95,3.54,3.51,1.15,1.44,0.69,-0.04,0.66,1.36,-1.01,-0.11,1.00,-1.23,0.86,-1.05,-0.11,-0.03,-0.08,0.82,1.09,-2.14,-0.64
"ex3108",2.38,0.30,0.70,2.80,4.10,5.33,7.17,5.71,3.88,2.32,2.43,1.48,1.33,0.92,1.86,-1.00,0.86,0.04,-1.52,1.33,1.16,-1.76,-0.56,1.05,0.12,1.75,0.05,-0.10,-0.76,0.06,-0.32,-0.46,0.87,-0.90,-2.53
"ex3109",0.90,-0.36,-1.16,0.35,1.33,0.73,0.09,1.96,2.34,2.97,0.61,1.67,2.68,2.94,2.22,5.34,3.78,0.94,0.69,0.87,-0.41,0.94,-2.01,-0.07,0.22,0.37,-0.31,0.02,3.79,0.24,-0.56,0.68,-1.95,-0.77,-0.16
"ex3110",-0.53,3.46,1.42,1.41,3.42,3.08,6.05,4.20,4.52,2.84,1.78,1.71,0.06,1.14,-0.13,-0.01,-0.29,2.31,0.07,0.81,1.17,1.31,1.28,-0.19,0.18,0.22,2.29,1.23,1.23,0.59,-0.57,-0.57,0.55,1.12,0.92
"ex3111",-0.65,1.69,-0.55,-0.44,0.74,-0.30,0.16,2.00,-1.77,0.21,2.36,2.06,4.46,4.98,6.43,4.34,3.67,2.72,0.94,-0.04,-1.80,0.26,-1.78,-0.76,-0.47,-0.22,0.10,0.11,-0.95,-0.32,-0.41,1.14,-0.58,0.71,0.06
"ex3112",-0.94,-1.55,1.58,2.24,1.26,1.37,4.29,2.39,0.57,1.96,2.71,1.83,2.60,3.82,3.18,3.61,4.22,1.08,-0.35,-0.02,0.54,-0.15,0.02,-0.71,0.83,-1.05,-1.32,-0.31,0.49,-0.46,0.23,-1.91,-0.69,2.05,-0.97
"ex3113",1.18,0.75,3.16,3.23,3.16,3.56,5.53,5.02,2.61,3.91,2.23,3.31,0.80,-0.05,0.87,-2.25,-0.65,2.56,-0.45,-0.34,-2.26,-0.10,-1.40,-2.65,-0.08,-0.74,-0.55,0.79,0.33,-0.30,1.58,0.07,-0.28,-0.10,-0.82
"ex3114",0.48,0.78,-0.41,0.77,-0.95,0.40,-0.84,-0.24,0.75,2.50,3.40,2.25,4.44,4.51,5.82,4.40,4.23,3.32,-0.03,1.15,0.27,-0.02,-0.37,-0.18,-2.24,-0.13,-0.29,-1.86,0.48,2.31,-1.45,2.09,-0.29,-0.52,1.05
"ex3115",0.84,-0.57,1.38,1.90,2.14,1.36,2.91,0.90,0.43,3.23,2.26,3.07,2.11,2.50,4.52,3.55,3.35,0.97,1.87,1.45,-0.50,-0.76,-0.71,1.15,-0.24,0.61,0.51,0.04,0.18,0.58,0.86,-0.54,0.67,1.34,-0.26
"ex3116",-0.80,0.57,1.88,3.04,4.66,3.45,3.64,5.01,4.86,3.84,2.20,1.78,-1.46,1.47,0.91,0.02,0.73,-0.16,-0.96,-0.42,-1.14,-0.81,0.99,-1.34,-0.28,0.85,-0.25,1.29,1.49,0.27,1.02,2.05,-0.94,-1.49,1.14
"ex3117",1.20,0.98,2.78,-0.21,-0.72,1.17,1.57,3.12,2.58,5.43,5.87,2.68,3.49,4.56,0.65,2.54,-0.52,0.02,1.29,0.40,0.47,0.53,0.49,-1.60,-0.47,0.68,0.63,-1.09,0.29,-0.23,1.36,-0.37,-0.65,0.97,-1.11
"ex3118",-0.41,-0.66,1.06,2.02,2.60,4.68,6.39,4.20,1.29,3.28,0.84,2.04,1.07,0.30,-0.86,0.92,0.63,2.22,1.13,1.25,1.80,-0.24,-0.31,0.41,-0.36,-0.19,0.12,-0.40,-0.46,0.46,-0.74,0.34,0.21,-0.41,-0.61
"ex3119",0.36,1.35,1.77,0.38,-0.31,1.34,-0.71,0.55,2.60,3.39,4.60,4.58,1.74,4.73,4.41,3.17,1.48,3.24,0.30,-0.22,-0.01,-1.54,0.13,-0.54,-1.31,0.58,-0.80,0.15,0.39,0.73,-0.27,1.05,-0.86,-0.07,-0.16
"ex3120",0.57,0.26,0.55,2.08,1.73,0.39,2.13,0.66,3.34,0.80,1.02,1.29,3.43,2.39,4.13,3.33,3.03,-0.59,-0.16,-1.34,1.07,1.57,-0.58,-0.55,-0.05,0.77,1.82,-0.25,-0.06,0.46,0.33,0.56,-0.21,-0.29,-2.12
"ex3121",-1.40,-1.45,-0.83,-0.67,-1.57,-0.06,0.52,3.50,3.88,5.17,4.57,4.03,3.80,2.51,2.58,1.29,1.59,1.59,-0.29,-0.60,0.21,-0.85,0.84,-0.67,-0.90,3.40,0.21,0.14,0.66,0.79,-0.26,-0.61,-1.30,1.67,-0.86
"ex3122",1.45,-0.87,-0.13,0.59,4.25,4.04,2.95,3.45,3.74,4.14,3.79,3.57,0.08,0.78,-0.40,-0.02,0.73,-0.24,-0.09,-1.08,-0.11,-1.30,0.35,-0.73,-0.50,2.00,-0.20,-0.93,0.29,-0.13,-0.23,0.03,-0.96,-1.78,1.21
"ex3123",0.23,0.83,1.01,3.73,1.81,5.27,3.51,5.84,3.55,2.54,1.54,1.53,-0.13,1.49,-0.11,1.88,0.72,-1.80,0.24,-0.29,-1.11,-1.18,-1.26,1.04,-0.05,-0.57,1.13,-1.05,2.51,-0.02,1.98,0.87,0.34,0.44,-1.73
"ex3124",-0.30,0.73,0.17,0.43,2.42,0.56,5.35,1.18,2.06,2.54,1.73,1.36,0.55,1.94,1.63,0.49,1.94,0.43,1.43,0.56,-0.85,1.60,-0.94,-0.85,-0.53,-1.06,-1.00,-0.81,-0.17,0.14,0.74,-0.73,1.26,-1.35,-0.43
"ex3125",0.90,-0.21,1.12,1.85,4.31,3.65,4.56,3.30,3.73,3.60,1.87,0.74,2.30,3.16,0.86,1.17,2.83,1.16,-0.87,-0.46,0.13,-0.50,0.59,0.49,-0.86,1.89,0.07,2.11,-0.24,-0.42,1.60,0.71,-0.06,0.40,-0.78
"ex3126",-0.90,0.05,1.60,2.20,0.81,4.80,6.57,5.84,3.99,2.76,2.64,-0.87,0.64,-0.09,0.38,-1.08,3.19,1.24,0.77,2.21,-0.90,0.62,-1.05,0.65,0.36,0.81,0.84,1.03,1.88,0.46,0.31,-0.38,-1.25,0.40,-0.35
"ex3127",0.09,0.03,1.14,0.29,-1.22,0.60,3.58,1.94,3.58,3.60,5.17,3.84,4.89,2.40,2.92,-0.25,-0.29,-1.06,0.37,-0.80,-0.40,-1.18,-0.33,-0.32,0.64,0.07,-0.52,0.55,0.77,0.17,0.74,1.22,-0.91,1.69,-0.10
"ex3128",-2.83,-0.26,0.69,0.67,1.13,3.78,2.96,2.15,2.14,2.46,4.96,2.31,3.00,2.31,2.00,2.92,2.50,2.14,1.22,1.74,-1.64,-0.68,-0.83,0.34,-0.93,-0.88,-0.86,0.33,-0.01,2.01,-0.12,-2.52,0.31,0.14,-0.24
"ex3129",0.07,-0.25,-0.44,-1.39,-0.08,-0.28,0.48,0.90,0.20,0.17,0.92,3.07,3.06,4.54,6.93,4.46,4.96,2.91,1.39,0.77,3.21,-1.17,-1.29,1.48,0.21,1.20,-1.15,-0.40,0.18,0.26,-0.15,0.81,-1.57,-3.73,1.10
"ex3130",1.66,-0.97,1.60,0.06,1.80,-0.10,3.05,1.48,-0.05,2.41,1.33,3.05,2.22,3.84,4.09,3.39,2.99,2.01,0.68,2.01,1.01,-0.84,-0.63,-0.72,-0.72,0.70,-0.48,0.38,-0.29,-0.08,-0.79,-0.36,-0.12,0.47,-0.85
"ex3131",-0.09,1.72,-0.82,4.50,3.06,4.06,5.17,3.97,5.41,2.92,3.81,2.47,-0.78,2.12,-0.15,1.06,1.17,0.62,0.66,0.05,1.03,0.01,-0.96,-1.00,-1.03,0.79,1.98,0.40,0.77,-0.24,-0.42,-0.55,-1.69,2.30,0.75
"ex3132",-0.09,-1.02,-0.17,0.71,0.26,-1.05,1.41,2.12,-0.06,1.62,2.13,3.45,3.89,4.47,4.74,3.45,4.36,5.43,1.33,-0.47,1.30,0.24,-0.26,1.20,0.11,-0.19,-1.15,1.52,1.91,-0.24,-0.86,1.98,0.50,-0.32,0.39
"ex3133",0.71,-0.92,0.37,-0.07,1.55,1.23,1.91,0.31,0.64,1.67,2.24,3.58,3.57,4.08,3.94,5.02,2.54,4.48,3.67,1.36,1.62,-0.16,1.41,-2.21,0.46,-0.91,0.72,0.07,0.89,1.05,-1.19,0.83,0.23,-0.65,0.37
"ex3134",-0.97,0.35,0.52,1.39,-1.85,0.43,-0.30,1.20,-0.12,1.64,3.65,3.71,5.55,4.13,4.12,3.68,1.18,1.78,0.47,0.36,0.60,-1.23,0.50,-0.68,-1.49,-2.59,-0.13,0.96,-0.12,0.35,1.19,-0.82,-0.35,0.90,0.63
"ex3135",-0.09,-0.13,0.25,-1.97,-0.07,0.55,1.77,5.31,2.59,5.19,6.39,4.29,1.82,1.76,2.51,2.48,2.25,-1.81,0.67,-0.50,1.70,-0.16,0.41,2.02,-1.35,0.25,-0.82,-0.37,-0.34,-1.16,0.21,0.48,0.06,0.40,1.39
"ex3136",0.67,-0.38,0.41,-0.14,-0.13,-0.27,1.04,4.30,3.88,4.87,5.37,5.84,2.66,3.07,2.50,2.65,2.72,-0.59,1.78,-1.64,1.02,-0.11,-1.12,0.58,1.39,0.20,1.05,-0.34,0.66,-2.32,1.08,0.13,-0.48,-0.34,-0.40
"ex3137",-1.11,-1.84,-0.59,2.19,0.30,-0.67,-0.25,2.64,2.03,3.28,3.30,4.78,2.34,3.30,1.73,3.15,2.75,1.47,-1.01,1.90,-2.75,0.74,0.05,-0.15,1.21,0.04,0.48,-0.26,-0.54,-1.53,0.13,0.45,1.45,1.43,1.33
"ex3138",1.04,1.18,-0.76,0.38,-0.06,0.12,3.99,1.47,3.61,3.37,5.90,5.58,5.02,3.11,3.16,2.21,-1.28,-0.63,1.14,1.14,0.55,0.77,-0.07,0.75,-0.84,1.09,0.05,0.32,-0.35,0.58,0.42,-1.74,-1.38,2.14,-0.95
"ex3139",0.54,0.40,-0.12,0.71,-0.62,-0.24,-0.60,-0.73,-0.82,1.95,1.98,4.38,3.42,4.27,6.94,4.32,4.42,1.56,2.21,0.26,0.18,0.83,-0.38,-1.49,-2.16,0.63,-1.05,-1.01,-0.02,0.16,0.67,-0.83,-2.24,-1.55,0.43
"ex3140",1.46,-1.56,0.41,-0.94,1.33,4.60,3.94,3.73,4.79,4.16,1.79,3.12,0.96,2.47,-0.02,0.23,-0.64,1.30,0.53,0.58,0.13,-2.23,-1.18,-0.36,1.35,0.23,-1.16,-1.11,-0.52,0.50,0.41,0.28,0.77,0.15,0.23
"ex3141",-0.32,2.32,2.17,0.58,1.10,2.41,1.46,4.50,2.14,6.10,5.11,3.76,3.28,1.30,1.43,0.36,0.35,-0.57,-0.93,1.28,-0.33,-0.35,0.20,-0.91,0.62,0.72,1.78,0.74,0.74,1.51,0.42,0.84,-2.74,0.55,1.07
"ex3142",-1.13,-0.45,1.26,1.96,1.63,4.89,7.05,4.04,1.74,4.99,3.47,3.20,2.92,1.23,0.21,0.62,-0.29,0.50,-0.53,0.80,-0.60,-0.65,2.63,-0.61,0.82,1.21,0.51,-0.76,1.27,1.83,1.50,-0.07,1.66,-0.45,0.08
"ex3143",-0.10,1.37,-0.78,-0.89,-0.10,0.22,0.38,-0.73,2.75,1.05,4.26,3.82,2.39,5.42,3.22,4.13,2.69,1.68,1.78,-0.14,-0.84,-0.92,-1.32,-1.11,-0.03,-0.91,0.86,-0.34,0.58,-0.57,-0.17,-0.12,3.03,0.05,0.36
"ex3144",-0.95,0.67,0.31,4.54,3.08,2.07,4.25,4.05,1.74,2.44,1.43,0.89,3.59,2.57,2.84,2.30,1.39,-0.18,1.09,-1.42,-0.52,-0.96,-0.20,0.02,-0.73,0.34,0.05,-0.21,0.58,-1.54,-1.06,-0.01,-0.07,-0.82,-0.39
"ex3145",-0.53,-1.75,-0.01,-1.09,1.15,2.63,1.54,1.64,3.84,2.71,5.33,3.43,5.05,3.58,2.05,1.62,0.18,1.59,1.79,-0.21,1.01,-0.92,-1.20,0.46,0.88,-2.02,0.06,-0.13,0.24,1.21,0.56,-2.66,1.07,0.10,0.08
"ex3146",-0.79,1.71,0.38,1.22,2.22,1.01,1.17,1.54,0.44,1.98,1.49,0.85,3.26,4.22,2.77,2.59,3.38,2.39,1.00,0.73,-0.04,-0.50,2.44,0.45,-1.25,1.05,2.21,0.80,-0.18,-0.37,-0.20,0.21,-0.25,-0.82,0.52
"ex3147",-1.33,2.14,1.10,1.41,2.19,2.97,6.06,3.36,3.96,3.55,4.36,1.75,0.08,2.89,0.28,1.85,0.61,-0.24,0.81,1.41,1.49,1.31,-1.44,-0.39,-0.98,-1.07,-2.02,-0.62,-0.87,0.16,0.16,0.01,-1.52,0.20,-0.53
"ex3148",0.64,0.19,-0.45,2.62,0.46,0.84,-0.28,2.61,0.47,3.58,4.23,2.31,3.53,3.23,2.42,1.89,-0.57,1.22,0.12,1.26,1.72,0.11,-0.14,-0.44,0.47,-1.37,-0.05,-0.36,0.43,-0.11,-0.80,-1.89,1.13,0.76,-0.21
"ex3149",0.89,0.10,1.36,-0.06,0.70,1.05,1.25,1.77,2.24,3.96,2.64,4.79,4.96,3.01,1.91,1.84,-0.23,1.21,1.10,-1.15,0.90,1.21,-0.02,0.98,0.94,0.26,-1.11,-0.86,0.56,-1.59,-0.49,0.25,0.30,0.19,0.90
"ex3150",-0.21,1.71,0.47,1.64,0.58,0.68,2.73,1.79,0.93,2.60,3.20,5.37,3.53,3.38,2.61,3.54,0.80,0.88,1.88,0.31,-2.26,-0.23,0.10,-0.29,-0.06,0.69,-0.69,-0.12,1.43,0.19,-0.88,1.40,1.73,-0.85,-0.29
"ex3151",-1.59,0.26,-0.50,1.29,0.18,-1.97,-1.47,0.62,2.13,2.47,1.56,1.47,5.11,4.68,5.11,5.06,1.94,1.42,2.83,-0.28,-0.12,-2.43,0.98,-0.36,0.78,-1.78,-0.03,-1.25,0.39,-0.26,-0.18,1.29,1.20,2.29,1.65
"ex3152",2.22,1.51,-0.61,0.11,1.40,2.31,0.08,1.39,3.31,3.74,5.44,4.44,4.35,3.62,2.61,3.93,0.68,-1.32,0.96,-3.11,2.07,-0.05,1.51,-0.09,-1.04,0.13,-0.61,-1.42,-0.22,1.41,-1.27,-0.03,0.14,1.68,-0.17
"ex3153",1.43,2.74,2.21,0.26,0.20,0.70,1.93,0.13,3.13,1.50,0.40,2.56,3.87,1.38,3.23,4.17,4.77,0.70,2.08,1.32,-0.61,1.20,-0.20,-1.76,0.18,-1.81,-0.24,0.65,0.42,-0.53,-0.23,-0.35,0.01,-0.95,-0.16
"ex3154",-1.10,-0.80,1.82,0.32,0.79,1.44,2.31,1.57,0.64,1.93,3.37,4.12,3.81,4.78,4.16,3.60,2.34,-0.30,0.44,1.61,-1.23,0.71,-1.59,-0.60,-0.38,0.84,-0.97,-0.49,1.63,-1.72,0.40,0.01,-0.69,-1.28,-0.97
"ex3155",1.29,-1.21,-0.66,-1.50,1.41,2.60,1.10,-1.42,0.97,1.34,1.72,3.14,2.60,5.00,5.71,5.00,1.93,2.41,1.60,0.79,-1.68,-0.70,-0.65,-0.59,-0.89,0.02,0.64,-1.28,-0.16,0.01,0.37,0.39,-0.74,0.62,0.66
"ex3156",-0.35,0.83,0.84,0.01,0.63,1.95,2.81,3.83,5.66,4.56,3.59,4.41,4.04,1.26,0.52,0.12,-0.13,0.20,-1.22,-0.48,-0.18,-1.76,2.09,-2.42,0.33,1.03,-2.08,0.41,0.90,-0.73,-0.26,0.33,-0.89,0.38,1.21
"ex3157",0.61,-0.92,-0.69,-0.28,0.99,3.90,2.13,3.72,2.81,3.74,3.80,4.34,4.38,1.69,0.98,2.16,-0.84,1.00,-0.83,-1.59,0.79,-0.56,1.68,-1.14,1.49,-1.45,0.81,0.82,0.19,-0.88,-0.53,0.09,0.97,1.43,1.81
"ex3158",1.12,1.19,0.74,0.71,0.56,1.73,-0.22,1.54,0.95,2.30,3.13,2.48,3.01,4.65,5.81,5.36,1.98,2.34,0.18,-0.61,0.33,-0.58,-0.51,0.47,-0.62,-0.19,-0.55,-0.15,0.40,1.19,0.19,0.92,2.00,1.48,-0.15
"ex3159",-0.59,0.55,1.56,-0.07,0.86,1.29,-0.04,0.86,2.11,3.48,4.61,2.88,5.21,3.84,2.80,4.28,2.66,2.83,0.45,1.13,0.22,-1.38,0.16,0.47,-0.50,-0.20,-1.04,-0.16,-0.06,-0.47,-0.92,-0.71,1.80,-2.52,0.46
"ex3160",-0.22,-0.24,1.99,2.25,5.10,4.20,5.20,4.08,2.17,1.77,1.25,0.40,1.06,-0.35,0.46,-1.04,-0.06,-1.34,1.79,0.26,1.58,2.67,-1.99,0.10,-0.85,-2.01,0.48,-1.01,-0.44,1.15,-1.94,0.45,0.08,2.20,-1.24
"ex3161",-0.20,2.60,0.16,2.46,4.19,4.15,4.98,6.31,2.54,2.59,1.88,1.56,3.07,1.63,2.06,-0.31,-1.60,0.73,1.35,0.37,0.08,1.45,-0.03,-0.20,1.21,0.49,0.23,-2.09,-0.91,-1.98,0.30,0.97,-2.04,0.34,0.92
"ex3162",-0.82,-0.61,-1.29,1.18,1.65,-1.01,3.62,3.60,1.79,5.41,5.01,4.53,5.58,2.58,4.12,3.18,2.79,0.40,0.76,-0.03,-2.19,0.28,-0.26,-0.22,1.03,-0.60,-2.43,1.15,0.84,1.58,-1.70,0.94,1.77,1.44,-0.09
"ex3163",1.37,-1.54,0.13,-1.28,-0.32,-0.79,0.81,0.14,1.95,2.40,4.24,3.29,5.26,2.57,4.90,3.64,2.41,2.34,1.04,0.33,0.11,0.59,-0.46,0.30,-0.93,1.01,1.55,-0.61,-0.56,2.29,-0.40,0.27,-1.74,-0.77,0.21
"ex3164",0.74,0.83,0.36,0.50,1.85,0.51,1.00,0.84,-1.24,1.04,1.20,-0.09,2.83,1.84,3.82,3.97,2.72,2.12,1.35,0.82,0.74,1.03,0.98,-1.29,-1.81,-0.45,-1.47,0.23,3.20,-1.58,-0.64,-0.49,-0.14,-0.49,-0.61
"ex3165",-0.59,0.27,1.16,0.01,-0.97,3.02,2.18,1.03,2.65,4.24,2.63,4.02,3.62,1.59,3.37,1.20,2.37,2.65,0.88,-0.93,-0.60,-0.37,0.71,0.52,0.03,-1.54,1.63,-1.58,0.83,0.89,-0.37,-0.15,0.16,-0.45,-0.65
"ex3166",0.95,-0.49,1.45,2.38,4.55,4.87,4.54,3.97,3.40,2.82,1.86,0.79,0.98,-0.65,1.26,-0.03,0.06,0.58,0.88,1.57,-0.51,-1.26,0.77,0.65,0.92,-0.78,0.10,0.31,0.58,0.82,0.02,1.60,-1.28,0.09,-0.43
"ex3167",0.39,1.44,0.51,0.53,0.40,-0.39,0.45,2.02,1.54,3.60,4.42,6.37,2.36,3.65,3.02,1.72,1.17,1.19,-0.19,-0.85,1.95,-1.49,-0.14,0.29,1.35,-1.38,-0.94,0.61,2.68,-0.28,0.82,-0.93,0.03,-2.20,-1.07
"ex3168",-0.97,0.09,1.20,0.77,3.02,3.17,5.50,3.59,4.68,3.39,1.36,1.14,0.86,2.77,1.99,-0.60,1.50,1.20,0.45,1.24,0.67,0.89,0.12,-0.85,-0.23,-0.70,0.96,1.70,-0.09,0.55,0.56,0.52,1.13,-0.89,-0.28
"ex3169",0.48,-0.01,0.79,-0.37,0.08,1.24,2.05,3.79,3.33,5.90,4.60,6.09,3.89,1.93,0.74,0.72,-0.15,1.03,-0.94,-1.23,-0.33,1.00,1.07,-0.78,1.89,0.27,1.03,0.04,-0.42,-0.56,0.95,-2.78,-1.53,-0.69,-0.29
"ex3170",0.04,-0.27,1.77,4.79,3.61,4.87,6.65,4.92,5.67,3.33,2.98,2.18,0.85,-0.60,-0.54,0.85,1.02,0.65,0.56,-2.35,-1.09,0.97,-0.69,-0.21,3.20,-0.41,1.81,0.40,-0.38,0.58,0.68,-1.47,-0.28,-0.17,2.13
"ex3171",-0.23,0.23,2.89,0.57,2.75,4.65,3.48,4.47,3.94,3.62,2.50,3.46,1.64,0.43,1.86,-0.58,2.43,0.77,0.73,0.06,0.10,0.69,-0.89,0.38,0.60,0.39,0.70,1.27,-0.50,-1.21,0.06,0.94,0.06,-0.72,1.20
"ex3172",-0.19,0.30,-1.03,-0.05,-2.17,-1.34,0.51,0.78,0.85,2.35,3.66,3.69,3.74,5.31,4.57,4.37,3.27,0.94,-0.61,-0.14,-0.52,0.92,0.30,0.90,0.47,-0.09,-0.10,-0.82,1.78,-0.07,-0.40,-0.09,1.07,-0.27,-0.44
"ex3173",-1.21,0.30,2.66,3.51,5.24,5.00,8.32,4.55,4.97,3.08,2.01,1.47,-0.08,-0.10,1.76,0.06,1.14,0.81,0.70,-1.24,0.77,-0.32,-0.82,0.51,0.08,1.61,-1.17,1.95,-0.50,1.27,0.56,0.37,-0.81,1.03,-1.04
"ex3174",-1.10,0.13,-0.43,1.35,1.54,1.84,2.57,4.38,4.39,4.74,3.64,2.86,3.14,2.77,0.44,-1.19,0.82,-1.37,-0.89,0.70,0.62,0.25,1.53,0.39,-0.54,1.65,-0.87,1.39,-0.73,0.59,1.34,0.16,1.40,0.04,-0.84
"ex3175",-0.80,-0.14,0.38,1.26,-1.14,0.96,1.08,0.61,1.38,1.75,3.22,4.95,4.82,4.48,4.66,3.17,3.82,1.03,2.48,-0.62,-0.03,-1.14,-1.05,-0.91,1.48,-0.56,-0.13,1.01,0.07,-0.08,1.15,1.39,-0.49,1.72,-0.93
"ex3176",-0.09,1.91,0.00,-1.67,1.60,2.70,2.72,1.22,4.06,4.35,4.65,3.80,3.32,3.96,2.89,2.54,1.21,1.82,1.76,0.12,-0.11,0.07,1.10,-0.26,-0.50,1.31,-0.55,-0.60,-0.47,0.55,-0.11,0.55,0.10,1.53,0.82
"ex3177",-1.13,0.71,0.69,0.06,2.57,2.48,2.95,2.82,4.19,6.22,6.18,5.35,1.78,5.17,1.97,0.57,-1.02,0.44,0.89,0.44,-1.72,0.42,0.19,-0.45,0.11,1.45,-0.15,1.99,0.90,0.89,-2.10,1.68,0.79,0.92,-0.42
"ex3178",0.41,-0.78,-1.41,3.22,0.28,-0.66,-1.09,0.64,0.09,0.98,3.71,3.79,5.55,6.15,6.53,4.18,4.47,2.33,2.74,0.43,1.37,1.31,-0.42,-1.16,0.54,0.18,2.24,-0.45,-0.05,0.07,-0.12,-0.64,1.13,1.20,0.28
"ex3179",-0.96,1.37,-0.03,3.39,3.00,3.37,5.01,4.13,3.20,3.28,3.91,3.05,2.60,2.77,-1.17,-0.06,-0.44,-1.23,-0.71,-0.41,0.42,-0.67,-0.62,-1.09,1.45,1.56,0.99,0.24,0.14,-0.05,0.09,-0.61,-0.81,-0.08,-0.73
"ex3180",-0.54,0.51,-1.94,-1.21,0.24,0.52,0.14,1.78,4.10,4.21,4.43,3.54,4.06,3.34,1.07,0.63,-0.78,-1.08,0.20,1.89,0.96,-0.50,-0.16,1.09,1.01,0.53,0.02,-1.57,1.70,0.02,0.51,2.40,-1.06,-1.86,-0.45
"ex3181",-0.28,1.58,3.26,1.96,3.77,-1.67,0.98,2.64,1.30,2.48,2.51,2.87,2.86,2.95,4.37,1.27,4.81,1.62,1.12,0.02,-0.52,-1.10,-1.38,0.73,-0.11,0.28,-0.46,-1.79,0.13,1.42,-1.26,2.20,0.44,-1.54,0.21
"ex3182",-1.10,-1.61,0.95,-1.39,0.87,0.75,1.90,1.69,1.85,3.52,2.75,3.80,3.05,2.95,3.59,1.96,1.26,0.72,-0.66,1.11,-1.31,2.31,-0.62,2.31,-0.42,1.57,1.64,0.71,0.92,0.21,-0.85,-0.12,0.06,1.15,0.47
"ex3183",-0.03,2.26,0.72,2.61,2.65,4.56,2.02,2.62,1.31,1.23,0.81,-0.56,0.28,1.58,0.57,2.90,2.72,0.89,0.94,1.14,0.01,1.39,0.99,1.33,-0.81,0.79,-0.34,-1.05,1.19,1.26,0.09,-0.92,0.36,-0.59,-1.25
"ex3184",-2.05,0.03,-0.40,2.85,2.18,0.84,3.30,3.75,2.14,4.63,6.46,5.26,2.43,2.81,1.61,-0.27,-0.10,-1.40,-0.41,-0.10,0.34,-0.68,0.96,0.24,1.47,-0.83,-1.08,-0.20,1.21,0.43,-1.63,-0.38,3.38,-1.19,-0.44
"ex3185",0.39,-0.62,1.23,3.04,3.82,4.63,5.69,3.77,2.94,4.39,3.00,2.13,0.41,0.68,0.22,1.50,-0.70,-0.53,0.64,-0.23,-0.55,1.51,-0.88,-1.05,0.91,-0.59,-1.14,0.36,0.85,0.95,0.44,-0.62,1.00,0.49,-0.33
"ex3186",0.60,0.80,1.58,1.79,2.67,4.33,3.72,3.78,2.47,5.04,3.94,4.89,3.27,1.11,1.36,0.50,0.62,-0.11,-0.35,-0.64,-0.58,0.84,1.28,1.11,-0.32,-1.90,0.07,-1.45,0.15,-1.74,-0.50,1.37,-0.68,-1.85,0.62
"ex3187",-0.08,1.84,0.97,1.31,2.13,2.14,3.49,4.26,2.71,4.17,1.16,1.67,0.09,2.13,0.00,0.28,1.85,1.12,-1.07,1.08,-1.78,0.33,-0.02,-0.37,-0.34,-0.80,-0.48,-0.07,0.24,-0.90,-0.69,-0.26,-1.15,-1.20,0.52
"ex3188",1.01,2.02,0.86,4.11,2.24,5.67,5.61,3.69,4.18,2.04,1.74,2.05,0.32,-0.95,2.29,-0.17,-0.46,-1.71,0.34,-0.06,0.43,-1.01,1.24,-0.12,-0.51,2.09,-1.64,-0.85,0.60,0.55,1.07,-0.56,0.06,1.04,-1.89
"ex3189",0.71,0.94,-0.53,-1.20,-1.74,0.22,0.92,3.85,4.12,2.41,3.70,3.20,2.90,4.70,3.76,3.59,2.56,1.51,0.58,0.29,-0.42,1.44,0.50,-1.56,-0.64,-0.18,-1.53,-0.72,-0.12,1.07,0.72,0.83,-0.36,-1.85,-2.11
"ex3190",0.43,1.76,3.02,2.05,3.76,5.52,6.73,5.77,3.31,1.06,1.57,2.56,-0.33,0.26,-1.03,-0.34,-0.57,0.77,0.76,0.74,-1.44,-2.72,0.67,1.02,-1.25,-2.31,-2.27,-1.40,0.27,0.79,-0.54,1.18,0.02,-1.16,1.38
"ex3191",0.01,0.46,1.69,1.27,-0.06,1.37,1.53,2.71,3.77,5.78,4.20,5.45,3.20,1.62,-0.37,1.17,-0.39,0.59,-1.18,0.78,1.23,0.27,-0.86,0.89,-1.35,0.97,0.89,0.02,-0.34,0.07,-0.31,-0.98,-0.59,1.42,0.68
"ex3192",-1.60,-1.02,-1.07,-1.09,-0.06,2.34,1.35,2.06,2.03,5.86,5.72,5.37,3.52,2.03,2.37,0.66,0.29,-0.18,-0.05,0.11,-0.44,0.16,0.86,0.69,0.84,0.95,1.68,-0.87,0.44,1.12,0.82,0.74,-0.76,-1.24,0.03
"ex3193",0.42,0.80,0.70,-0.82,0.26,0.84,1.89,2.03,4.41,2.97,4.23,6.24,4.28,3.85,2.08,1.58,2.04,-0.49,-0.28,1.31,-0.34,0.49,0.64,0.18,0.04,0.80,-0.93,-0.69,2.09,-1.61,0.73,-1.82,-0.30,0.40,0.50
"ex3194",-0.51,0.83,-0.15,1.09,-0.60,0.74,0.79,0.73,4.27,2.66,4.56,5.38,4.51,3.79,4.17,-0.05,0.76,3.14,0.59,0.05,0.44,2.30,0.44,-0.05,1.33,-0.56,0.09,0.18,-0.10,-0.22,2.82,-1.58,1.10,-1.11,-0.71
"ex3195",-1.37,0.26,0.36,-0.91,-0.79,0.50,1.83,0.75,3.15,1.94,4.55,3.84,4.04,3.88,3.42,4.37,1.97,0.67,1.98,-0.37,-0.57,0.82,-0.60,-1.43,-1.06,-0.06,0.95,-1.03,-0.05,0.96,-2.94,-0.96,0.85,1.11,1.07
"ex3196",-1.73,-0.06,-2.59,0.78,-0.47,0.48,2.18,2.58,3.06,5.65,6.00,5.55,5.47,2.63,2.23,-1.73,-0.33,1.41,0.99,-0.95,0.30,0.58,-1.29,-0.55,-0.41,0.68,-0.24,-0.92,0.05,-1.25,1.17,-0.69,0.55,2.10,0.52
"ex3197",-0.30,1.32,1.12,0.47,-0.86,1.73,0.97,-0.16,-0.74,0.38,1.27,4.81,3.59,4.96,5.12,4.63,3.81,3.15,2.45,2.76,1.21,0.07,0.93,-0.78,-0.24,-0.56,-0.35,-1.58,-0.11,-0.92,-0.20,1.36,-0.95,-0.44,-0.25
"ex3198",-1.45,2.04,0.38,-0.15,1.46,1.76,4.04,4.05,4.38,3.84,3.64,1.28,1.89,2.91,-0.39,-0.52,-0.53,0.74,1.88,1.52,1.08,1.10,1.11,0.84,-0.66,-0.06,-1.41,-0.53,-0.78,-0.70,0.30,0.30,1.83,-0.63,0.11
"ex3199",0.82,-0.62,1.71,0.88,0.79,1.35,-0.02,-0.99,-0.88,1.15,3.00,1.47,3.43,3.83,6.10,4.04,5.19,2.83,1.01,0.63,-1.97,1.05,-0.30,-0.21,-0.23,-0.88,-0.93,-0.57,0.82,0.56,0.04,0.21,0.01,-0.44,-0.13
"ex3200",-0.57,0.36,1.84,1.17,2.18,6.77,5.99,2.73,2.10,2.83,2.59,2.46,1.15,0.59,0.82,0.48,0.14,-0.34,-0.14,0.84,-1.20,0.21,0.37,-0.44,1.62,1.98,0.87,1.26,0.42,-1.30,-0.06,0.30,0.45,0.80,-0.37
"ex3201",-1.56,0.48,1.84,1.27,2.17,2.27,5.65,4.67,2.56,1.97,-0.09,0.45,0.67,0.88,2.13,-0.31,1.58,-0.84,-0.78,-1.21,-2.21,-0.09,0.76,-3.48,1.03,-1.34,-0.38,-1.85,0.10,0.57,0.82,0.97,-1.48,-1.68,2.80
"ex3202",-0.01,1.29,2.49,1.41,1.68,3.92,3.39,0.49,2.64,1.99,-0.16,1.51,2.67,2.04,4.44,3.98,3.40,0.63,0.46,0.54,-2.01,-0.12,1.17,-0.53,0.56,-0.22,-0.09,2.52,0.15,-0.50,0.48,-0.81,0.15,1.57,0.05
"ex3203",-0.51,0.64,1.00,1.94,3.91,4.76,6.91,4.42,4.43,4.15,1.48,0.47,1.20,-0.32,2.21,-1.45,-0.70,-0.95,1.30,0.28,0.06,-0.99,0.09,0.18,1.03,-0.72,0.04,0.66,0.76,0.04,0.43,-1.76,-0.61,1.38,0.81
"ex3204",-0.37,0.37,1.39,1.03,3.05,2.84,3.77,4.93,3.98,4.75,4.32,2.92,1.79,0.83,0.78,3.29,-0.05,1.45,1.83,1.22,-3.22,1.00,0.41,0.24,0.62,1.65,-0.24,-1.60,-1.37,-0.71,-0.53,-0.63,1.38,-1.56,-1.31
"ex3205",1.34,0.09,0.26,1.95,-0.49,2.67,3.91,4.11,3.01,7.20,4.38,4.89,2.67,1.27,-0.15,1.18,-0.20,-2.69,1.08,0.18,-0.13,-0.73,0.75,-0.28,1.07,0.17,0.61,-0.01,-0.02,1.09,-0.50,0.43,0.04,-2.07,-0.91
"ex3206",-0.85,-0.22,0.59,2.94,2.87,4.08,4.11,5.10,3.72,2.21,1.65,1.44,1.08,1.73,1.72,2.06,0.12,0.61,1.96,-1.72,-1.10,-0.54,0.25,1.55,1.56,-1.03,-0.37,-0.39,0.74,-0.34,-1.36,1.54,-0.04,0.86,0.52
"ex3207",-0.29,1.64,0.39,1.73,1.40,1.55,0.92,1.03,2.16,0.77,2.01,2.58,3.71,5.06,4.92,3.71,2.71,1.28,1.85,-0.10,0.76,0.91,-1.45,0.66,0.04,-1.25,-0.39,-0.39,-0.06,-0.53,0.12,0.37,-1.31,-0.13,-2.25
"ex3208",1.43,1.34,1.85,2.44,3.97,5.37,3.75,5.64,4.23,1.72,0.72,-0.14,-0.14,-0.21,1.20,0.42,-0.02,1.56,1.24,1.06,-1.68,1.28,0.54,-0.58,1.30,-0.42,-0.58,-0.43,-0.35,0.37,-0.26,-1.81,-0.46,0.11,-0.32
"ex3209",-0.67,0.85,-1.10,0.27,0.33,2.48,2.50,1.77,3.51,4.68,4.49,4.89,2.38,4.21,3.33,0.18,1.17,1.46,1.53,0.68,-0.04,-0.54,-0.41,-0.45,0.09,-0.48,1.37,0.65,-0.98,0.10,0.62,0.67,-1.64,0.46,-0.02
"ex3210",1.21,-1.57,-0.55,-0.27,-0.17,1.77,1.34,0.48,0.56,2.25,3.55,3.81,3.14,1.91,4.63,7.39,3.00,0.89,0.65,0.22,0.73,0.41,-0.64,-1.02,0.50,1.90,-0.64,-1.98,0.59,1.21,-1.71,-0.28,0.46,0.57,-0.10
"ex3211",1.29,-1.24,0.81,-0.64,1.47,0.73,0.16,2.09,2.03,4.74,5.65,3.84,3.57,3.56,3.27,0.69,1.06,1.34,1.88,0.10,-0.30,0.37,0.51,0.28,0.17,-0.00,-2.09,1.13,0.10,0.99,0.25,1.89,-1.57,1.75,-1.46
"ex3212",0.68,-1.12,0.12,-0.19,0.08,-1.06,3.45,2.77,3.74,3.06,3.60,3.90,4.03,3.95,4.16,3.69,1.54,2.02,0.49,-1.77,0.31,1.16,0.49,-1.54,0.70,-1.96,-0.33,-0.32,0.45,-1.06,-0.96,-0.70,1.12,-0.80,-0.03
"ex3213",-0.02,-0.01,0.22,2.58,3.66,2.81,4.37,3.82,3.94,5.63,3.35,3.03,1.88,1.96,1.82,-1.24,0.46,-1.90,2.05,0.23,-2.20,0.94,-0.42,-0.77,-1.37,-1.04,-0.92,-1.75,3.43,-0.30,-0.98,1.23,-0.53,0.45,-0.48
"ex3214",-0.31,0.64,0.26,-1.19,-0.24,-2.21,-1.37,-0.06,-0.61,1.62,2.94,2.68,2.32,4.65,5.23,5.06,3.02,2.88,1.50,0.24,-1.36,0.06,-0.17,1.02,0.89,-0.35,0.10,0.39,1.22,-1.49,-1.15,0.28,-1.00,0.67,-1.94
"ex3215",0.87,0.13,-0.84,2.69,2.52,1.73,3.32,3.73,4.17,3.48,4.06,1.65,1.79,0.85,0.48,1.00,-0.86,0.94,1.55,-0.16,0.06,-0.96,-0.16,-0.49,-0.67,-0.41,0.57,-1.54,-0.78,0.35,0.23,-1.56,-0.43,0.57,0.76
"ex3216",0.50,-0.65,2.17,0.61,-0.01,2.98,3.39,3.74,3.12,4.09,2.92,6.05,4.50,1.53,0.18,0.69,0.45,0.14,1.17,0.76,0.48,0.29,1.03,-1.48,0.51,-1.22,-0.14,0.85,0.75,-0.54,-0.38,0.44,0.33,-0.67,0.20
"ex3217",-1.08,1.20,1.23,1.45,0.98,3.05,2.96,4.89,2.27,3.03,2.55,1.97,1.20,2.12,1.62,-1.67,0.08,1.07,-1.61,0.23,0.06,0.59,2.02,1.64,0.83,-1.30,0.33,0.30,-1.77,0.67,-1.55,-0.34,2.13,1.13,1.16
"ex3218",0.17,0.72,-0.22,0.73,1.77,1.09,1.42,-0.74,-0.06,4.25,3.68,1.98,2.40,3.53,4.02,2.76,1.78,0.57,1.78,1.28,1.02,0.22,-1.71,-0.30,-0.68,-1.80,-0.30,0.98,-0.44,0.90,-0.70,-1.16,-1.60,-0.81,-0.11
"ex3219",-1.00,-0.58,1.02,-1.56,0.82,1.10,0.70,1.59,0.14,0.68,2.66,2.58,4.20,4.73,6.17,6.16,2.14,2.44,4.03,0.94,2.07,0.39,0.45,-0.09,1.28,0.74,-0.07,0.36,-0.41,1.30,0.39,-0.20,-0.86,-0.88,0.76
"ex3220",0.51,0.03,1.13,1.03,1.90,2.37,1.76,1.67,2.91,5.13,6.41,5.14,5.55,2.51,1.28,1.67,-1.33,1.91,-1.00,-0.21,0.81,0.45,0.78,1.33,-0.84,1.38,-1.13,-0.85,-1.89,-0.36,-1.91,0.19,0.76,-1.48,0.35
"ex3221",0.80,1.25,2.38,2.70,5.64,3.11,6.32,5.67,3.22,2.17,3.01,1.43,0.53,-0.58,-0.99,0.24,0.79,-0.31,0.35,0.95,-1.36,0.24,0.88,1.07,-1.60,-0.22,-0.76,0.47,1.35,0.56,-0.79,1.42,1.41,-0.36,-0.68
"ex3222",-0.11,-0.12,1.84,0.51,-0.91,1.90,2.08,0.17,-0.38,0.83,2.34,3.97,2.50,3.71,5.37,5.54,3.36,2.23,2.52,0.73,-0.25,-0.61,-0.38,0.27,-1.86,1.42,0.97,-1.07,0.52,0.71,0.38,1.34,0.20,0.27,0.41
"ex3223",-1.33,1.00,1.38,0.11,2.19,0.42,0.40,2.16,1.85,2.07,4.95,1.69,3.56,4.01,3.47,3.79,1.89,0.04,-0.56,1.40,-1.12,-1.54,-1.09,-1.04,1.65,-1.04,-0.97,-0.55,-0.43,0.19,-0.69,-1.81,3.20,-1.42,0.16
"ex3224",0.86,0.59,1.50,1.92,0.63,1.91,1.84,4.25,0.38,0.37,2.74,2.84,3.79,1.78,5.54,2.30,2.68,1.47,0.18,-0.10,-1.34,-0.44,-0.19,0.39,1.06,2.14,1.18,-1.21,-0.28,-0.43,0.33,0.44,0.17,-0.55,-0.03
"ex3225",-1.12,0.26,1.29,3.81,1.49,3.93,5.45,4.13,4.58,1.13,2.11,-1.49,1.83,3.04,0.93,2.06,-0.14,2.37,-0.68,0.04,-0.31,0.78,0.63,0.72,-0.40,0.15,0.71,-0.26,1.03,-1.50,0.72,0.74,-2.04,-0.15,-0.38
"ex3226",-1.11,-1.66,0.64,0.03,0.16,-1.16,3.80,2.18,2.07,2.94,3.75,2.89,3.80,5.17,4.47,2.42,0.01,2.59,1.00,-0.39,0.50,0.56,1.79,0.91,-0.55,-0.95,0.76,-1.22,-0.67,-0.67,1.63,-0.18,-1.76,0.46,-0.28
"ex3227",1.04,1.02,-0.84,0.50,1.27,1.69,-0.71,1.04,-0.18,1.58,1.69,2.55,4.50,4.89,4.66,4.11,6.65,3.50,3.25,0.53,1.59,-1.30,1.24,1.34,1.49,-1.60,0.05,0.44,-0.75,-0.51,-0.90,-0.39,-0.81,-0.53,-0.05
"ex3228",-1.02,1.07,1.77,3.26,2.66,2.64,2.59,6.60,4.85,3.36,3.77,2.31,1.27,2.09,0.43,-0.45,0.64,-2.42,-0.03,-0.12,-0.46,0.20,-1.57,1.00,-0.43,-1.48,-2.37,-1.46,-0.24,1.42,1.44,-1.01,-0.36,0.72,0.87
"ex3229",1.66,0.04,0.11,-0.22,1.72,3.20,4.50,3.63,6.10,3.07,2.44,3.22,2.87,1.81,1.79,1.12,0.77,-0.69,1.35,0.22,0.43,-0.44,2.25,1.62,-0.73,-0.72,1.18,1.32,0.43,-0.45,-0.87,0.23,-0.56,0.36,1.54
"ex3230",0.77,0.68,-0.01,1.11,4.36,2.39,4.48,3.95,4.46,4.23,4.26,1.50,1.62,0.67,0.16,0.39,0.50,-0.68,0.55,0.75,-0.64,0.72,0.96,0.84,-0.69,-1.03,1.54,-0.69,0.93,-0.36,-1.39,0.26,0.98,-0.31,-0.70
"ex3231",0.72,0.85,-0.74,0.22,0.11,2.09,-0.73,1.36,1.13,3.20,3.47,0.94,4.85,3.54,5.18,3.83,3.23,2.60,0.73,0.19,2.06,-0.98,-0.38,0.73,-0.10,-0.56,-1.33,-0.25,0.35,-0.09,0.31,-0.58,-0.33,2.05,0.53
"ex3232",2.01,2.10,-0.70,-2.72,-0.49,0.17,-1.70,-2.28,1.04,0.89,2.58,2.48,3.76,4.39,5.14,6.17,3.75,3.22,2.52,0.41,0.92,-1.07,-0.53,-0.03,-0.23,-1.03,0.42,0.16,-0.81,0.13,-1.89,0.48,0.25,0.12,-1.21
"ex3233",-1.13,1.40,-0.48,0.01,-1.24,0.51,1.84,-0.25,0.74,2.13,2.95,2.04,3.82,4.41,5.62,5.85,3.24,0.47,4.26,0.37,0.85,-2.32,-1.02,-0.97,-0.27,-0.41,-1.47,-0.47,0.77,0.59,-0.45,0.10,0.91,0.54,0.30
"ex3234",0.45,-0.61,0.25,-0.27,-0.81,1.02,-0.35,-1.39,0.28,3.52,3.89,3.20,4.65,4.26,6.25,5.17,2.90,1.29,1.94,1.74,-0.71,-2.55,-0.67,0.82,-0.78,-0.13,1.24,-1.99,1.07,1.09,-0.42,0.95,-0.08,1.17,0.39
"ex3235",-0.64,-0.09,-0.08,2.23,2.58,4.79,4.92,6.00,4.31,2.56,2.44,1.52,1.26,1.05,2.37,-0.34,-0.45,0.35,1.23,1.11,-0.26,-0.27,-0.61,-0.80,-0.65,1.08,-0.54,-1.43,0.74,-1.06,-1.59,-0.79,-1.13,-0.05,-0.64
"ex3236",0.25,1.07,0.26,1.01,0.20,0.49,1.36,1.87,3.27,3.60,5.16,3.72,3.13,3.23,2.60,0.60,2.64,0.27,0.22,2.52,0.06,-0.13,-1.18,-1.48,1.57,-0.18,0.97,-1.64,0.11,-0.33,-0.25,-0.30,0.97,1.46,0.72
"ex3237",0.35,2.27,2.38,1.74,3.98,4.30,4.78,3.72,4.46,3.25,3.20,1.04,0.35,1.72,1.53,0.13,-0.29,0.00,-0.01,0.59,-0.69,-0.49,-0.98,0.35,0.22,-2.62,0.41,0.55,-0.86,-0.84,-0.43,-0.72,0.85,0.24,0.96
"ex3238",-0.90,1.38,1.20,1.19,2.84,1.92,2.37,3.10,5.50,2.79,4.42,3.71,1.34,2.13,1.43,0.39,0.56,-0.25,-0.12,2.00,-0.38,0.61,1.08,0.03,0.29,1.12,-1.59,1.21,-0.29,-0.61,-0.41,1.83,0.06,0.19,1.32
"ex3239",1.07,0.54,0.01,-0.33,1.20,-0.20,3.29,-0.02,0.62,0.19,2.62,4.03,5.08,4.61,6.29,5.48,1.90,3.77,3.11,2.24,1.55,0.34,0.67,-0.86,-1.15,-2.29,-0.31,-0.65,-0.17,-1.02,-0.45,-2.50,-0.76,-0.35,-2.07
"ex3240",-0.18,2.30,-1.37,-0.43,0.45,-1.62,-0.22,0.89,2.38,2.51,3.02,1.24,2.64,5.26,4.15,3.00,2.82,1.95,0.71,0.83,1.59,0.39,0.93,0.09,1.22,-0.50,-0.35,1.74,0.61,-0.72,1.02,1.05,0.51,-0.25,1.83
"ex3241",0.10,0.70,1.97,-0.01,0.75,-1.22,0.65,2.69,0.53,5.07,5.46,5.24,4.31,3.00,5.05,3.16,1.01,0.96,1.86,0.89,-1.75,-0.14,-0.57,-1.62,0.44,0.17,0.93,-1.15,0.04,-0.16,0.61,0.73,0.07,-0.03,1.15
"ex3242",0.77,0.90,1.26,-1.06,-1.01,0.90,-1.81,1.74,1.29,1.78,2.35,5.01,3.65,4.35,2.73,4.11,1.80,1.81,1.48,2.28,1.43,1.59,0.36,-1.07,1.53,-0.17,0.48,-0.67,-1.93,0.86,-1.46,-0.40,0.49,-1.48,-1.12
"ex3243",-0.96,0.39,1.39,2.98,4.75,5.68,4.22,5.92,4.27,3.24,1.98,1.47,0.15,1.24,0.17,-0.04,0.52,-0.58,0.23,-0.05,1.72,-0.12,-0.75,-1.06,1.84,-0.87,-0.16,-0.07,-2.00,-2.03,0.31,2.00,-0.03,-0.19,0.50
"ex3244",2.26,-0.66,0.74,-0.52,-0.35,2.76,2.03,2.91,2.53,3.74,3.77,2.55,2.99,5.49,2.62,3.48,0.85,0.50,-1.09,-0.03,-0.83,0.32,-1.46,-0.52,-0.52,-0.17,1.50,0.49,0.51,0.63,0.02,-1.01,1.38,0.49,0.74
"ex3245",2.59,2.01,-1.06,0.14,-1.74,0.60,-0.95,1.99,2.99,4.32,5.30,3.60,5.56,4.15,2.32,2.92,-0.99,1.51,-0.81,-0.10,0.94,-0.43,-1.12,0.18,0.21,0.25,0.20,0.20,1.53,0.88,-0.34,0.49,-0.33,0.78,1.18
"ex3246",-2.21,0.05,1.86,0.82,1.05,1.39,3.07,2.07,1.84,2.32,2.27,1.30,3.59,3.26,4.30,2.98,3.45,1.95,2.17,0.17,1.10,-0.29,1.38,-0.44,0.79,-0.28,1.21,-0.01,-2.66,-0.23,1.02,0.73,0.63,-0.85,-0.53
"ex3247",1.27,-0.04,0.95,2.51,3.46,5.53,5.03,5.19,5.12,3.07,1.67,1.57,1.48,-1.77,-1.11,-1.43,-0.99,-1.38,-1.47,0.19,-0.30,-1.11,-0.01,1.68,0.77,-1.43,-0.22,-0.76,0.08,2.46,-0.08,1.40,1.00,0.45,0.99
"ex3248",1.16,1.53,1.93,2.68,5.85,4.94,5.43,5.22,4.95,3.66,2.42,2.67,-1.05,-0.23,1.35,-0.11,1.97,1.34,-0.60,-0.32,-2.20,1.74,1.08,-0.66,-0.46,0.38,-1.51,0.26,1.65,-0.94,1.15,0.94,-0.47,0.61,-1.53
"ex3249",-0.64,0.51,1.13,2.72,4.75,4.93,4.93,3.19,4.05,4.90,4.00,-0.08,1.31,0.13,-0.32,0.37,0.61,-1.01,0.26,0.44,0.99,0.31,0.42,0.92,-0.30,1.14,0.79,-1.59,-0.69,-0.17,-0.12,-1.89,0.87,-1.29,0.95
"ex3250",0.11,0.52,-0.56,-0.25,-0.01,-0.31,0.14,0.95,-1.59,3.10,2.14,1.90,4.70,5.69,7.71,4.62,4.81,2.31,0.44,1.36,0.47,0.00,-0.36,-0.85,1.04,-0.85,0.27,1.97,-1.13,0.65,-0.45,0.00,0.10,-2.72,-0.78
"ex3251",1.04,0.89,0.81,2.20,3.53,2.88,3.56,4.08,5.89,4.47,3.91,2.81,2.13,2.17,1.43,1.44,-0.62,0.04,-0.75,-1.20,0.68,0.48,0.48,2.08,0.40,0.14,-1.35,1.97,0.12,-1.81,0.64,-1.32,-0.50,-0.44,1.06
"ex3252",0.82,0.87,-0.36,1.20,0.42,1.24,2.12,3.85,4.06,5.18,6.01,3.80,1.72,3.75,1.24,1.92,0.34,0.64,0.16,0.03,0.46,1.78,0.07,0.67,-0.87,-1.88,-1.12,-1.82,0.27,0.16,0.78,1.11,0.93,0.47,0.22
"ex3253",0.48,1.78,0.28,1.88,1.68,2.65,2.43,2.60,3.03,2.49,2.43,0.94,0.89,3.01,3.27,2.06,2.90,1.10,1.40,0.49,1.31,0.46,-0.89,1.27,-0.87,-0.27,-1.05,0.01,0.94,-1.14,0.07,-0.57,-0.26,-0.60,0.09
"ex3254",-1.22,-0.07,2.64,2.16,2.69,4.99,5.05,5.52,3.18,3.74,1.59,0.88,0.96,-0.87,1.23,1.61,0.44,0.38,-2.27,0.06,-0.06,-0.10,2.19,-0.42,1.40,0.09,0.34,-2.69,0.86,-0.89,0.05,-0.58,-1.56,0.69,0.12
"ex3255",1.38,-0.42,-0.61,0.82,1.10,1.61,1.66,3.33,3.40,5.20,5.71,3.69,3.77,3.64,3.19,1.33,-0.94,-0.78,1.19,-1.74,-0.90,0.94,-0.63,-1.55,0.75,0.64,-1.35,-0.97,-0.67,0.96,0.39,-0.74,-2.70,1.03,2.19
"ex3256",0.09,1.86,1.29,3.03,2.46,4.69,1.72,2.70,2.17,1.64,2.98,1.49,2.87,0.30,0.49,2.46,3.14,-0.30,1.45,2.51,-1.32,0.42,0.71,0.27,-0.71,1.10,-0.41,-0.55,-0.34,0.38,-0.23,0.68,-0.15,1.38,1.38
"ex3257",0.54,1.49,1.75,2.99,3.76,2.69,3.08,3.57,4.10,2.35,1.58,0.46,1.89,0.91,2.44,0.76,2.99,1.34,0.74,1.13,-0.13,0.21,-0.40,-0.34,-0.68,-0.29,-0.79,1.04,0.40,-0.15,-0.05,-0.22,0.87,-0.35,0.45
"ex3258",0.14,0.09,1.79,0.18,1.83,2.42,2.36,1.74,-0.20,0.64,0.80,2.29,6.20,5.51,3.70,3.66,3.06,2.19,0.30,0.43,1.63,-1.03,-1.04,0.84,1.11,-0.51,0.26,1.13,-1.78,0.99,0.75,-0.48,-0.36,1.53,0.83
"ex3259",-1.36,-1.05,2.30,1.32,-0.45,1.81,1.19,0.16,2.46,1.41,2.92,2.89,3.34,4.82,3.49,2.41,3.55,2.73,1.52,-0.07,-0.25,-2.65,-1.57,-0.02,-0.23,1.71,1.20,-0.84,-0.23,0.79,0.73,0.06,-1.13,1.23,-0.47
"ex3260",2.15,0.90,0.44,-0.30,1.64,1.36,1.92,2.34,2.80,2.58,5.03,1.24,3.10,4.15,3.08,2.26,1.41,-0.46,0.17,1.06,0.69,0.87,0.23,-1.18,1.24,0.42,0.68,0.37,0.08,1.20,-0.60,-0.21,-0.60,-1.84,-0.05
"ex3261",1.07,0.78,0.60,1.90,3.70,3.03,6.66,5.91,4.18,3.35,2.37,1.77,1.12,1.90,1.09,-0.20,0.45,-0.64,-0.91,-0.32,-0.05,-1.10,-1.14,-0.64,1.14,-0.59,-0.30,2.04,-0.53,0.33,0.11,1.05,0.80,0.36,0.68
"ex3262",0.90,-0.21,2.74,0.82,-0.12,1.15,2.24,1.66,0.75,0.91,3.12,3.21,1.78,3.47,2.04,3.91,2.76,2.00,2.49,1.64,-0.30,-0.91,0.12,-1.21,0.43,0.31,2.46,0.96,-0.22,0.04,0.77,-0.59,0.22,-0.67,-0.52
"ex3263",-0.15,2.04,0.55,1.23,-2.10,2.56,0.52,3.36,0.80,0.34,2.53,1.07,1.90,2.56,5.47,2.64,1.91,0.50,1.66,0.57,0.57,-0.32,-0.75,-1.75,1.56,0.69,0.81,-0.12,-0.27,-2.05,2.29,0.38,2.23,-0.42,0.80
"ex3264",-1.16,0.12,-1.27,-1.67,0.69,-0.44,-0.38,0.77,2.34,0.75,3.10,2.76,4.90,1.83,6.10,4.77,3.98,5.42,1.39,1.62,0.65,1.10,-0.29,-1.69,0.44,-1.05,-0.63,-0.43,2.11,-0.13,-0.69,-0.61,0.06,1.00,0.10
"ex3265",0.74,1.21,0.39,0.85,3.61,5.91,5.73,4.47,4.17,4.29,4.11,2.68,1.10,0.57,0.94,0.73,0.69,0.93,-0.03,-1.26,0.29,1.07,1.11,-1.36,-0.03,0.63,1.18,0.68,1.45,0.47,-0.53,0.01,-0.89,0.25,-1.18
"ex3266",1.37,2.04,0.12,0.19,2.44,1.76,2.48,3.03,-0.14,1.66,1.85,3.05,2.89,3.23,4.41,3.52,3.22,2.64,0.93,-0.12,0.41,1.14,-0.73,-0.60,-0.29,0.94,-1.14,-1.20,-1.15,0.69,0.20,-0.50,2.52,0.32,-0.65
"ex3267",-1.01,-1.01,-0.14,-0.62,0.44,-0.85,2.14,3.49,2.85,5.87,5.30,5.11,6.06,3.58,3.03,0.65,-0.80,0.41,0.44,0.53,-1.83,0.93,-0.61,1.60,0.94,1.29,1.82,-0.64,-0.98,-0.32,0.16,0.61,1.91,-0.54,-0.97
"ex3268",-1.99,-0.45,1.92,0.70,-0.19,1.96,3.26,3.64,4.64,5.18,4.75,2.60,3.01,2.12,3.14,0.52,-1.90,0.13,2.63,1.42,0.65,-2.20,1.12,0.30,-0.90,-0.61,0.32,0.18,-0.81,-0.71,0.07,-0.85,-0.04,-0.32,-0.80
"ex3269",-0.96,-1.42,0.45,-1.63,0.63,-0.28,1.12,1.33,2.86,1.46,3.29,4.86,3.81,4.91,5.16,3.44,0.08,0.33,0.07,1.26,-1.63,2.35,-0.69,0.89,0.25,0.33,0.82,2.35,-0.55,-0.56,0.40,0.62,1.58,1.62,1.96
"ex3270",1.92,0.35,1.65,0.25,-0.91,-0.03,0.93,3.15,1.62,3.32,4.09,4.71,2.53,3.61,2.85,2.42,3.82,-0.05,1.17,2.47,-0.64,-0.62,0.23,0.66,-0.90,-0.07,-0.95,1.36,1.66,0.88,0.12,-1.96,1.37,-0.86,0.52
"ex3271",0.01,-0.88,0.47,1.21,0.61,0.98,2.67,3.87,4.66,4.77,6.80,3.83,5.54,2.69,1.83,0.98,0.44,0.09,0.02,0.23,1.05,1.57,-1.67,1.36,0.33,-0.31,-0.23,1.58,-0.60,-0.24,-1.38,-0.31,0.18,-1.39,-1.45
"ex3272",1.06,-0.42,-1.09,-0.47,-1.89,-0.50,3.95,3.31,3.43,4.46,5.21,4.31,3.72,4.49,3.18,-0.18,1.18,0.62,-0.03,-0.69,-1.98,-0.99,-1.32,0.09,-1.07,-0.87,-0.21,0.08,-0.55,1.10,0.45,0.09,0.09,1.21,-0.13
"ex3273",1.11,1.47,2.65,-0.45,-0.64,0.07,1.49,3.52,1.61,3.89,3.15,4.74,4.44,4.86,4.18,4.36,1.65,0.38,1.74,-0.51,0.22,-0.03,-0.59,1.16,0.89,-1.59,-1.72,-0.01,0.66,1.16,1.19,-0.30,-1.32,0.30,-0.36
"ex3274",-0.82,1.38,1.31,1.16,1.52,4.15,2.40,1.40,0.22,1.08,2.27,1.59,2.41,4.18,3.72,3.88,2.22,2.17,1.58,0.80,-0.67,-1.10,-0.39,-0.10,-0.48,-0.43,-1.11,-0.29,-0.62,0.40,-0.22,0.01,0.79,-0.45,-0.02
"ex3275",1.00,1.45,1.91,2.01,2.93,5.01,4.99,5.24,2.04,3.68,4.59,2.31,2.35,0.57,-1.50,1.53,-0.78,-0.01,-0.68,1.62,-0.62,-1.62,0.66,-1.19,2.63,-0.27,1.88,0.75,1.15,-0.26,-0.04,0.43,-0.33,-0.71,1.90
"ex3276",1.17,0.39,1.24,0.43,3.92,2.78,2.03,2.84,0.72,1.41,4.25,2.23,1.42,4.27,2.77,2.55,1.59,-0.56,0.06,0.30,-0.11,1.46,-0.08,1.75,-0.40,-0.52,-1.44,-0.34,1.25,0.42,0.22,-1.24,-0.97,1.00,-1.68
"ex3277",0.75,0.49,2.92,2.43,2.43,1.87,1.24,2.24,0.94,3.27,1.97,1.05,0.42,2.56,4.02,3.21,3.42,0.40,1.58,-1.78,0.29,-1.85,-0.43,-0.87,0.96,-0.44,-0.26,-1.89,-0.72,0.21,0.22,0.69,0.73,0.72,-1.00
"ex3278",1.41,-0.32,0.11,-0.26,0.34,-0.72,0.07,4.52,5.07,5.37,4.39,4.62,3.66,3.05,3.09,1.06,0.08,-0.80,2.02,-0.69,-0.53,1.64,0.22,0.91,-1.15,-0.25,1.11,0.44,-1.75,2.04,-0.71,-0.53,-1.12,0.23,-0.33
"ex3279",0.33,1.60,2.22,3.15,3.90,4.18,7.14,4.97,2.08,2.31,1.89,0.20,-0.16,1.31,-0.30,-0.69,0.23,-0.04,0.78,0.08,1.80,-0.89,1.28,-0.84,0.46,-0.33,-0.43,-2.49,0.53,-0.41,-1.71,-1.11,-1.77,0.06,-0.97
"ex3280",-0.13,-0.23,1.22,-0.17,-2.00,-1.65,-1.14,1.38,0.84,3.04,4.73,2.99,4.59,2.82,3.64,3.95,0.68,0.90,-0.01,0.46,-0.01,0.40,0.64,0.08,0.48,-0.86,1.14,-0.88,-0.55,0.47,-0.01,-0.87,1.60,1.48,0.39
"ex3281",1.24,0.20,1.25,2.17,4.94,4.64,4.11,4.35,3.90,3.38,3.78,1.85,1.59,1.28,1.48,3.26,0.55,0.17,-0.64,-1.93,-1.20,-2.24,-1.16,-1.10,-0.13,2.01,-0.08,-0.45,-0.52,-0.65,0.59,0.34,-0.89,0.67,-1.28
"ex3282",0.06,-0.50,2.39,3.59,0.46,3.62,6.44,3.30,5.02,2.79,2.46,2.80,2.71,0.56,1.71,-0.65,-0.10,-0.27,-0.25,-0.30,0.41,1.37,0.60,0.49,-1.58,1.21,-1.48,1.10,0.97,-0.85,-0.14,-0.19,0.18,0.81,1.22
"ex3283",-0.21,0.09,2.22,1.90,2.45,1.41,4.70,4.71,0.92,2.78,3.11,2.03,0.70,-0.01,4.23,1.15,0.56,0.76,1.19,2.16,-0.76,-1.26,-0.27,-0.59,0.02,1.59,-1.80,1.06,-1.29,1.71,-0.29,0.82,-0.39,1.39,0.87
"ex3284",-2.13,-0.32,0.75,1.43,2.22,0.88,-0.41,1.35,1.18,1.01,2.01,2.01,3.26,3.58,4.80,5.12,4.01,2.89,2.14,-0.33,-0.84,-0.25,3.91,-0.38,-1.02,0.51,1.47,-1.38,-0.43,0.50,2.63,0.11,0.11,-1.55,0.67
"ex3285",-0.46,-1.47,1.66,3.39,3.79,1.06,4.72,3.74,4.23,5.86,4.59,2.33,2.37,2.33,-0.07,1.09,1.54,-1.54,-0.12,1.21,0.44,0.12,0.51,0.13,0.11,0.69,0.55,-1.37,-1.45,-0.05,0.19,-0.65,0.43,-1.00,0.69
"ex3286",0.01,-0.59,-1.04,-0.64,-0.57,-1.56,0.65,0.38,0.73,0.92,4.59,2.94,3.37,5.28,7.43,4.94,3.02,3.18,0.93,0.24,-0.90,1.62,0.07,-0.22,0.37,-0.76,-0.58,-1.79,0.85,-0.16,0.77,-0.33,0.94,1.59,-0.10
"ex3287",1.04,0.87,-0.41,-1.51,-0.09,1.89,0.47,2.56,1.80,2.64,4.10,4.58,5.50,3.37,3.72,2.70,3.13,1.42,0.85,2.23,1.44,-0.60,-0.12,1.44,-0.19,2.04,-0.12,0.02,2.32,0.45,-0.06,-1.16,-0.97,0.28,1.24
"ex3288",-1.16,-0.30,-1.22,0.32,1.28,-0.45,1.31,-0.06,0.11,1.79,2.47,2.48,3.89,5.18,6.98,4.85,4.49,1.65,1.29,0.07,-0.78,1.58,0.48,2.46,0.95,1.01,-0.82,-1.26,-0.05,-0.90,-2.48,-0.30,0.58,-0.37,0.43
"ex3289",-0.66,0.99,1.09,1.01,3.54,2.78,2.49,2.76,5.23,5.05,4.10,3.74,4.08,2.52,1.44,0.94,1.42,0.04,-0.73,-0.70,-0.14,-0.09,-0.14,0.70,-1.27,0.33,-0.21,2.08,-0.59,0.12,0.82,-0.41,0.31,0.85,0.10
"ex3290",-0.11,-0.71,0.55,-0.46,0.09,0.01,1.10,2.42,2.48,4.31,5.08,4.81,3.49,5.32,0.85,2.08,0.89,-0.47,1.24,-0.61,-0.47,0.49,-1.28,0.83,0.04,-1.54,1.22,-0.76,0.52,0.12,-0.40,-1.34,0.52,-0.58,-0.43
"ex3291",0.43,0.84,1.64,1.58,1.09,-0.32,0.10,0.96,0.29,2.51,3.06,3.11,4.99,5.03,3.68,5.23,4.00,2.47,1.89,-0.11,0.08,1.24,0.37,-0.86,-0.11,0.14,0.85,-1.19,1.28,0.39,0.33,-1.47,-0.15,-2.04,-0.66
"ex3292",-0.24,-0.92,0.20,-0.16,1.21,-1.14,1.26,3.16,2.67,1.23,3.76,3.47,4.19,3.56,3.56,4.01,0.97,1.18,3.15,0.22,0.81,0.77,0.17,-0.00,1.23,1.27,0.03,-0.60,0.75,-0.34,0.85,-0.25,-0.45,-0.98,0.21
"ex3293",1.96,0.04,-0.84,-0.03,1.15,-1.06,1.64,2.82,3.24,4.21,2.97,3.02,4.55,4.02,3.72,3.88,0.09,-0.57,0.55,0.96,-0.80,-0.47,-1.20,0.09,-0.85,0.81,0.63,0.39,-0.73,-0.09,-0.38,-1.48,0.12,0.52,0.56
"ex3294",-1.53,0.40,0.65,-1.24,0.32,0.18,2.87,2.90,4.21,5.43,6.80,4.45,3.57,3.67,1.25,2.34,-0.18,0.50,-0.62,-0.13,-1.28,-0.03,1.25,-1.19,-0.27,-0.63,-1.18,-0.16,1.10,-1.32,0.22,-2.36,-1.31,-0.64,0.26
"ex3295",0.52,-1.43,-0.27,-2.42,1.78,1.07,0.56,2.80,0.66,2.78,5.25,5.16,4.34,3.75,4.52,1.86,-0.26,1.33,2.29,-0.99,-1.23,1.11,1.17,0.27,0.59,1.83,-1.03,0.88,1.60,0.69,-0.02,-1.60,-0.74,0.78,0.20
"ex3296",0.23,0.31,-0.32,2.06,1.89,3.34,3.62,3.29,2.62,3.20,0.46,2.06,2.26,2.98,2.03,2.07,1.29,1.66,2.07,0.32,0.69,-1.15,0.77,-0.30,0.26,-0.42,-0.01,0.21,1.07,-0.98,2.64,0.70,-0.47,-1.72,0.02
"ex3297",1.08,1.10,0.76,-1.44,-0.37,0.57,2.06,2.62,5.52,6.35,6.10,6.12,3.33,3.17,1.61,-0.66,0.95,1.52,0.08,1.09,-0.45,-0.30,0.81,-1.08,2.71,0.38,0.40,0.53,1.07,1.83,0.21,-1.33,-1.68,-1.30,-0.31
"ex3298",-1.28,0.00,3.53,1.98,2.48,4.58,6.46,3.19,4.04,3.46,2.73,1.71,2.96,2.62,-0.26,0.51,-2.60,-0.19,-0.13,-1.23,-0.98,-0.19,0.53,-1.19,-1.30,1.42,-1.73,0.37,-0.72,-0.35,-0.56,-2.03,-2.40,0.13,-0.79
"ex3299",1.11,0.60,-0.30,-1.20,1.03,2.55,2.66,2.70,3.53,4.08,4.21,3.66,3.54,2.82,0.65,0.20,0.02,-0.52,1.41,-0.26,-0.49,0.94,-0.22,-1.05,-0.17,0.62,-0.23,0.46,0.98,0.20,-1.51,1.73,0.46,0.65,-0.29
"ex3300",0.02,2.85,1.66,2.83,3.02,6.04,5.23,4.27,3.11,4.30,2.27,0.73,-0.16,2.91,0.82,0.65,1.22,-0.16,1.37,-1.30,0.09,1.38,0.78,0.30,-0.43,1.05,0.39,2.39,1.79,-0.77,0.12,-1.41,0.64,0.77,-0.50
"ex3301",-0.30,-0.59,-1.79,0.79,2.10,-0.22,0.39,1.84,3.67,3.24,3.65,4.02,3.54,3.78,3.20,1.89,2.49,1.89,-0.36,-0.23,0.65,0.36,1.25,-0.55,0.71,0.91,3.37,0.56,0.40,0.01,-1.03,0.07,0.88,-0.11,-0.04
"ex3302",-0.15,-0.21,1.83,1.80,5.18,4.99,5.50,5.25,4.40,5.06,1.37,1.03,-0.16,0.76,1.00,0.58,1.67,1.47,-0.73,-0.20,0.63,-0.54,0.43,-2.27,0.08,-0.41,0.19,0.83,-0.40,-0.35,0.20,-0.03,0.07,-1.68,1.59
"ex3303",-0.85,1.19,2.16,2.31,0.50,2.66,4.05,2.16,3.12,4.12,5.34,3.94,3.01,0.33,1.06,1.55,-2.15,0.05,-0.60,0.24,-0.28,-1.16,1.01,-0.62,1.29,0.22,-0.46,0.78,1.17,-0.17,0.51,-1.10,-2.14,2.05,-1.64
"ex3304",-1.45,-1.43,0.08,0.53,0.11,0.37,1.57,3.07,2.36,3.28,6.03,4.53,2.78,3.80,5.17,1.96,2.43,1.92,0.90,1.54,-0.99,0.86,-0.28,0.39,0.09,-0.35,-0.48,-0.18,1.41,1.30,0.71,-0.10,0.58,-0.32,0.49
"ex3305",-1.23,1.00,-0.47,1.42,3.80,1.64,4.22,1.84,1.83,2.42,1.20,2.78,0.56,3.88,3.02,4.59,2.56,0.90,0.95,0.35,-2.69,0.85,-0.83,-0.92,1.02,-1.01,-0.14,-0.74,0.61,-0.70,-1.46,1.83,0.31,-0.11,0.92
"ex3306",-1.70,0.20,0.82,-0.79,0.88,-1.02,1.51,1.24,-0.81,2.45,3.12,4.01,5.55,3.31,4.31,3.90,4.21,3.53,0.80,0.78,0.34,0.27,-0.63,-0.04,0.53,-1.75,-0.05,0.86,-0.47,0.89,1.53,-0.70,0.99,1.06,-0.20
"ex3307",0.83,0.85,0.07,1.22,-0.23,0.96,-0.86,1.15,1.12,2.35,3.59,2.66,4.90,5.05,6.32,4.58,3.51,2.35,1.96,-0.23,-0.90,0.92,-1.18,1.28,0.07,-0.05,-0.02,-1.03,1.89,-0.40,-1.56,-0.22,0.21,0.77,0.78
"ex3308",-0.53,-1.45,0.94,-0.59,-0.73,-1.15,-1.31,0.22,1.46,-0.13,2.24,2.85,5.25,8.82,4.95,4.36,3.71,1.94,2.60,1.08,-0.68,-0.99,0.67,-0.23,0.72,-2.99,0.44,0.80,-1.04,-0.54,-0.58,-0.07,-0.02,-1.72,-0.86
"ex3309",0.52,-1.13,-0.11,0.78,-0.23,1.66,0.10,1.45,1.30,2.05,2.88,3.10,2.28,4.70,4.51,2.85,1.83,1.70,1.87,1.77,-0.66,-0.53,0.94,-0.09,0.53,0.58,0.02,0.72,0.75,-1.46,0.53,-0.09,-0.36,2.51,-1.99
"ex3310",1.95,-0.63,1.55,2.23,1.20,3.96,5.19,4.71,4.26,4.20,3.85,1.35,0.82,1.68,1.72,-0.25,-0.78,-1.30,1.06,-0.23,-0.61,0.23,-0.45,0.47,0.55,0.73,-0.37,0.12,1.14,-1.01,-0.92,0.20,-0.78,-0.50,-1.19
"ex3311",1.17,0.46,0.47,0.17,1.09,1.81,3.32,4.46,5.41,5.32,4.59,4.50,2.41,0.32,1.44,0.22,-1.03,-0.77,1.07,0.36,-1.10,0.55,0.05,-0.17,0.88,0.24,-0.38,0.79,0.26,-1.57,-0.87,-1.41,0.84,0.39,0.34
"ex3312",-0.57,0.65,1.71,1.70,1.14,1.22,4.05,4.72,2.53,3.06,1.41,0.62,2.73,2.11,3.96,2.74,0.02,0.71,1.28,0.77,-2.75,-1.43,-0.34,-0.61,0.41,-1.18,0.65,1.56,0.43,-0.87,-1.30,-1.07,-0.30,-0.75,-0.77
"ex3313",1.32,1.10,0.53,-0.29,-0.87,1.08,0.59,-0.13,1.75,1.36,3.72,1.41,2.98,3.70,4.55,4.12,2.47,2.08,2.75,-1.14,-0.75,-0.63,-0.75,-0.61,1.13,0.80,0.13,0.85,-1.41,0.25,0.65,0.13,2.90,-0.87,0.17
"ex3314",-0.30,0.20,2.22,1.98,1.87,1.95,4.16,3.29,2.38,5.54,2.62,1.23,1.71,1.78,0.25,3.79,-1.10,1.89,0.78,-0.20,0.41,-0.83,-2.09,-0.74,0.64,-0.05,0.39,1.18,-0.47,0.13,-0.09,-0.61,-1.81,1.65,-0.40
"ex3315",0.64,0.54,-0.96,-1.49,0.39,-0.29,0.17,0.76,0.54,1.61,1.94,3.89,6.11,4.82,5.30,4.22,3.86,1.60,0.51,0.74,-0.60,-0.56,0.48,0.60,-0.42,-0.49,-0.87,0.39,1.09,-1.73,-0.09,1.25,-0.89,-0.46,0.03
"ex3316",-0.72,-0.41,0.28,1.24,1.38,2.43,3.02,3.60,1.99,2.50,4.12,4.25,3.94,3.79,2.01,1.95,1.46,0.47,0.73,0.76,-0.73,-0.36,-1.43,-1.35,1.75,-0.56,-0.26,0.58,-1.39,-1.17,0.11,1.97,0.86,0.21,-2.79
"ex3317",0.20,0.57,0.71,3.93,4.18,2.76,4.70,6.35,3.86,3.23,3.55,0.85,2.08,1.02,-0.03,1.52,1.37,0.74,0.88,-0.42,-0.67,0.18,-0.82,-0.84,2.22,1.12,0.77,0.83,0.06,-1.04,-0.71,-0.78,0.26,-0.29,0.76
"ex3318",0.03,-0.79,-2.22,-0.97,0.14,1.33,2.37,2.17,2.64,4.02,3.16,4.89,3.62,3.50,4.26,3.87,-1.00,0.74,0.63,-0.48,-0.27,-1.25,1.06,-0.80,-1.39,-0.35,0.41,0.30,0.16,1.20,-0.52,0.13,0.69,0.13,-0.64
"ex3319",0.75,0.09,1.03,-0.32,-0.07,2.18,0.94,1.19,2.19,0.97,5.71,3.69,3.35,5.21,5.42,3.74,1.95,1.18,1.54,1.92,-0.75,0.78,0.20,-1.19,0.80,-0.69,-1.12,0.49,-0.18,-0.05,0.23,-1.34,-0.36,0.63,-1.00
"ex3320",-0.14,-0.10,0.01,-0.08,-0.14,-1.18,1.71,1.37,0.74,3.05,4.53,3.86,3.59,3.04,4.50,5.02,3.88,3.00,1.51,-0.02,-0.42,0.11,-1.48,-0.89,-0.00,-0.53,-0.38,1.44,0.25,-0.47,-0.53,1.59,-0.60,2.15,0.30
"ex3321",0.41,-0.22,-1.91,1.79,-0.72,0.55,0.19,0.88,1.62,1.87,3.60,1.57,3.99,2.19,3.85,4.14,0.69,4.07,0.30,-0.19,-0.68,0.85,1.35,-0.49,0.78,0.46,-0.71,-0.98,0.23,0.71,0.19,1.46,-0.44,-1.14,0.91
"ex3322",0.54,2.02,0.02,0.97,4.11,3.60,4.58,4.06,3.58,3.17,3.84,2.63,0.91,0.76,1.72,-0.00,-0.98,-0.47,0.30,-1.17,0.46,0.50,0.52,-0.88,-1.22,0.90,0.03,0.12,-1.23,0.67,0.11,-1.13,1.53,-1.33,1.13
"ex3323",-0.08,-0.51,2.03,0.31,-1.75,-0.22,1.03,0.92,1.86,3.45,4.29,4.24,3.61,1.39,3.84,1.59,0.83,-0.84,1.11,0.37,-0.81,-1.10,0.06,-0.25,1.61,-0.76,-1.05,0.84,0.18,-0.60,0.35,-0.35,-2.01,-1.53,-1.00
"ex3324",-0.55,-0.12,1.39,2.54,3.15,4.40,5.16,2.85,4.97,1.71,1.78,1.68,0.12,-0.17,-0.02,-1.13,1.35,-0.24,0.17,0.83,-0.50,1.11,1.13,-0.36,-0.84,-1.01,-0.99,-0.43,-2.39,0.65,-0.30,-0.03,-0.27,0.07,2.59
"ex3325",-0.92,1.55,0.45,0.00,0.88,1.15,2.30,4.62,4.27,3.97,3.02,3.27,2.46,2.29,1.88,0.93,0.84,1.52,-0.23,1.63,0.61,-0.65,0.95,-1.06,-1.40,-1.03,0.93,-0.54,-0.40,-0.83,-0.02,0.30,-0.15,-0.86,0.52
"ex3326",-0.27,1.46,-0.68,1.35,3.39,3.28,2.91,1.55,1.56,2.12,2.41,1.95,1.59,3.14,4.80,2.92,1.67,0.99,1.80,-1.43,-0.55,-1.55,0.65,-0.89,-0.52,-0.12,-0.88,-0.17,-1.67,-0.09,-0.32,-0.92,-0.73,0.77,-2.09
"ex3327",-0.23,0.59,-1.09,1.02,1.35,1.13,3.82,3.86,3.91,3.81,3.78,2.97,2.85,1.31,0.95,-0.88,-1.67,0.81,-1.29,0.21,-1.86,-2.38,-0.89,1.02,0.47,-0.53,-1.67,1.06,-0.98,-1.69,-2.69,1.17,1.99,0.47,1.60
"ex3328",-0.64,1.45,-1.72,-1.03,-2.04,-1.57,0.72,-0.83,0.65,0.15,0.87,2.01,5.39,3.52,5.05,4.24,4.65,0.74,1.61,1.90,0.61,-0.52,-0.37,1.11,-1.37,-1.33,-0.76,0.48,0.54,-1.50,-0.99,0.04,1.09,0.07,1.27
"ex3329",-0.61,1.42,-2.59,1.37,2.13,1.19,-1.11,-0.23,0.49,0.82,3.31,3.28,3.48,3.42,5.55,4.05,3.71,3.38,4.48,2.64,0.87,1.72,0.83,0.53,0.85,-0.12,-0.61,0.13,-0.13,1.70,-1.57,0.48,-0.59,0.20,-0.60
"ex3330",-1.27,-0.05,0.06,-0.77,-0.33,0.31,0.91,1.64,0.66,0.55,2.64,4.14,1.34,4.39,5.75,4.35,2.72,3.07,2.81,2.14,0.32,-1.72,0.08,0.52,-0.77,-1.23,0.03,2.32,-1.51,-1.54,-0.42,-0.41,-0.29,-1.81,-0.28
"ex3331",-0.63,-1.31,0.40,0.18,2.85,2.20,4.27,4.39,4.89,5.09,4.53,4.34,2.31,0.45,-0.02,1.34,-0.37,-0.68,0.57,-0.19,-1.26,0.77,0.17,-0.88,1.66,0.61,-0.01,0.53,0.41,-1.09,-0.16,-0.60,-1.19,-0.85,0.82
"ex3332",1.48,-0.18,-1.11,0.17,-1.22,-0.59,-0.51,1.03,0.98,1.81,2.17,2.89,3.43,4.12,5.62,4.39,4.43,3.07,2.35,1.67,0.77,0.07,0.64,-0.16,-0.62,0.13,0.79,0.48,0.46,0.50,-0.41,-0.24,-0.06,0.03,1.53
"ex3333",-1.03,1.42,0.88,1.22,0.16,1.79,0.08,1.95,2.64,0.33,2.47,2.98,5.23,3.61,3.51,4.00,3.29,2.90,0.49,0.90,-0.89,0.36,2.30,-0.13,1.68,1.63,-1.01,-0.66,-0.97,-0.79,0.51,2.76,-0.58,-0.02,-0.71
"ex3334",-0.11,0.68,2.10,0.59,2.18,2.20,4.37,4.42,6.36,4.69,6.25,3.17,1.52,1.05,1.16,1.75,-0.09,-0.53,-0.83,0.33,0.38,-0.92,1.78,0.49,0.07,1.02,-1.06,1.39,-0.14,-0.52,-0.49,0.62,-0.70,0.00,0.06
"ex3335",0.89,0.63,1.37,-0.38,0.58,-0.37,2.58,1.34,2.79,4.26,5.20,3.82,4.14,2.89,2.65,2.59,0.55,0.78,-0.13,-0.00,-0.19,0.12,-2.16,0.36,0.92,-2.61,2.29,-1.04,-1.18,0.28,-1.84,0.40,-0.18,-0.18,0.93
"ex3336",1.78,1.00,0.50,3.43,1.85,3.42,5.71,5.25,5.04,4.68,2.39,3.36,-0.30,0.34,-0.11,-1.53,-0.56,1.92,-1.53,-1.26,-0.73,1.69,0.21,-0.62,1.64,-0.86,1.49,-2.08,-0.01,0.60,2.01,-2.77,-1.19,-0.72,0.17
"ex3337",-1.07,0.25,-0.54,0.81,2.49,0.99,4.74,1.91,3.51,6.24,5.30,2.73,2.78,2.82,1.02,-0.09,-1.45,-0.97,0.88,1.27,-0.99,0.71,1.47,-0.44,0.37,-0.70,1.32,0.54,-0.41,1.30,-0.96,1.27,2.20,-0.34,-1.10
"ex3338",-0.95,0.46,2.76,2.11,3.54,4.41,4.72,2.86,2.28,1.92,1.70,-1.74,-0.87,2.13,0.54,-1.00,0.71,1.00,-0.36,-1.04,1.53,0.63,-0.64,0.22,1.97,1.50,0.25,1.17,-1.58,0.40,0.06,1.47,0.60,-1.79,0.81
"ex3339",1.35,1.68,2.64,2.10,3.23,1.68,5.57,4.84,4.48,4.08,2.46,2.04,2.82,-0.47,-0.46,0.43,-0.53,-1.57,1.30,0.15,0.22,-1.11,-0.75,1.12,-0.14,0.95,1.15,2.04,-0.89,-0.72,-0.76,0.23,2.97,-0.21,2.77
"ex3340",-1.17,0.03,-0.29,-1.37,1.87,-1.12,1.08,0.36,3.00,3.10,5.31,5.62,4.74,3.63,3.02,2.44,1.29,0.23,1.00,-0.97,-0.11,0.52,0.81,-1.95,-0.16,1.35,0.24,-0.44,-0.43,-2.48,-0.09,0.32,0.73,0.43,-1.34
"ex3341",0.39,0.24,1.56,3.55,2.59,5.19,5.32,4.70,3.01,2.59,3.40,2.43,1.41,0.47,-0.90,0.57,1.24,-1.61,2.68,-0.41,0.31,0.01,-0.05,0.69,-1.48,-1.08,0.80,-0.98,-0.19,0.40,0.21,-0.86,-1.98,1.02,-0.39
"ex3342",-1.65,1.08,-0.01,0.81,-0.23,1.15,3.01,2.58,3.02,3.12,5.67,4.16,3.41,2.39,4.51,2.39,-0.19,1.47,0.22,-0.38,0.39,0.49,-2.91,-0.52,-0.22,1.11,-0.75,0.01,-0.32,-0.49,0.09,2.10,1.14,0.59,-0.21
"ex3343",0.05,1.59,0.34,1.41,2.37,4.57,4.19,4.04,3.71,4.11,4.13,1.23,1.01,-0.35,-0.64,-1.23,1.86,1.13,-0.60,-0.43,0.76,-1.50,-0.72,-2.04,-1.55,-1.16,-0.40,1.54,-1.24,0.04,0.80,-1.14,2.92,-0.20,-1.18
"ex3344",-0.65,0.98,0.02,1.99,2.90,3.88,6.87,5.21,3.86,2.08,4.89,0.12,-0.55,0.08,-0.77,-1.81,0.34,-1.21,-0.03,-1.28,-0.22,0.25,0.28,1.02,-1.18,0.84,0.13,-0.73,1.74,-1.38,0.11,-1.63,0.00,2.45,0.38
"ex3345",-0.91,0.18,-0.57,1.80,0.52,0.64,0.37,1.39,-0.27,1.16,1.76,3.65,3.99,3.31,5.65,5.09,3.51,1.90,1.50,-0.68,-1.64,0.69,1.06,0.25,0.06,0.46,1.37,1.10,-0.12,0.96,-0.28,-1.00,-1.20,0.86,-1.25
"ex3346",2.74,0.94,3.27,1.27,3.41,3.30,2.08,2.22,3.83,4.60,2.02,2.70,3.34,2.92,0.69,-0.29,-0.42,1.79,-0.19,0.84,0.12,0.65,-1.24,-0.86,0.76,-0.37,-0.75,-0.26,-0.10,-0.89,-0.63,-0.23,0.84,1.05,-0.10
"ex3347",0.48,-0.12,0.67,2.50,1.47,4.46,3.47,3.63,4.10,4.75,1.48,2.02,3.80,0.67,0.69,0.29,-0.56,-0.56,-0.15,1.05,0.77,0.27,-0.20,0.55,-2.21,-1.86,-0.18,0.66,0.57,0.43,1.03,0.74,0.52,1.40,1.00
"ex3348",-0.45,0.10,0.26,2.06,2.37,3.21,1.76,2.42,2.26,2.14,3.69,0.56,1.77,2.26,2.72,1.85,1.75,1.94,1.57,0.26,0.40,-0.77,0.34,-0.42,-0.03,-0.90,-0.21,-0.48,0.61,-0.75,-0.52,0.10,-0.04,0.31,-0.77
"ex3349",-0.44,-0.36,-0.43,0.88,0.36,1.60,0.31,0.46,-0.12,1.73,3.71,3.23,5.29,5.96,4.74,4.02,3.81,3.79,2.06,0.11,0.07,-1.10,0.26,-0.80,-0.26,-1.24,-0.71,-2.30,-1.56,0.01,-0.29,0.10,-1.43,-0.45,-0.05
"ex3350",-2.35,0.22,0.55,1.48,3.47,1.87,5.72,4.01,2.40,2.77,2.21,0.23,2.87,1.65,1.19,2.12,-0.41,1.54,0.67,0.60,2.11,-0.49,1.00,-1.24,-1.25,-0.44,0.36,-1.17,1.83,1.33,1.82,-0.84,0.58,1.61,0.98
"ex3351",0.13,2.16,2.27,1.47,4.41,3.99,7.77,6.08,5.91,1.25,2.59,1.62,-0.31,1.38,-0.60,1.05,0.03,-1.38,-0.24,-0.60,1.82,0.59,0.04,-2.32,0.63,1.35,-2.71,-1.36,-0.15,0.30,1.15,0.01,-0.10,0.26,0.41
"ex3352",-0.33,0.79,1.73,3.16,5.04,4.31,6.02,4.26,5.29,0.39,2.54,2.61,0.68,1.92,0.49,-0.17,-1.38,0.48,0.06,0.08,-0.44,0.98,0.82,0.16,-1.16,0.26,0.41,-1.13,0.25,-0.19,-1.00,0.87,2.11,-0.93,0.37
"ex3353",0.81,-0.62,0.94,1.31,0.08,1.38,1.59,-0.58,0.78,3.11,5.47,4.16,3.15,3.47,3.30,3.11,0.80,1.24,-0.19,3.44,0.61,1.96,0.30,-0.24,-0.98,1.26,0.15,0.75,-0.08,-0.09,0.54,0.12,0.91,0.57,-0.29
"ex3354",-0.93,1.01,-2.30,-0.51,1.09,0.44,1.47,0.71,2.23,2.14,4.90,4.81,4.23,3.52,3.92,3.45,3.11,0.61,0.47,0.27,1.26,0.09,0.88,-0.38,0.07,1.57,-0.39,-0.78,-1.06,0.93,-0.72,0.87,1.59,0.64,-0.55
"ex3355",-0.35,2.16,1.49,-1.10,-0.02,0.31,1.21,0.43,0.97,1.13,1.83,4.11,1.89,5.20,3.84,3.97,5.45,1.79,-0.34,1.43,-0.51,-1.23,0.19,-0.06,0.69,-0.41,0.81,0.30,-0.52,-1.91,0.45,0.75,0.66,-0.27,1.32
"ex3356",0.05,-0.42,2.76,3.34,2.08,3.44,2.97,3.81,5.00,4.24,2.12,1.14,0.99,2.00,0.12,0.30,0.08,-0.05,1.14,-0.46,-0.92,-0.13,-0.33,-1.43,0.53,0.88,0.20,-0.85,-1.23,-0.29,1.23,-1.65,-0.39,0.01,0.23
"ex3357",-0.39,1.46,-0.07,0.04,0.17,0.46,-2.84,-0.44,2.43,3.12,2.90,5.32,2.34,4.73,4.12,5.34,3.19,1.42,0.01,0.56,1.35,-0.45,-1.07,-0.09,-0.25,0.62,0.04,-0.56,0.01,-0.75,0.98,1.12,-0.40,-0.00,0.21
"ex3358",0.47,-0.33,2.34,1.30,0.19,0.92,1.30,0.06,-0.15,2.40,0.15,2.27,4.35,4.86,6.10,4.07,3.19,3.94,1.32,2.40,0.96,-0.60,1.82,0.51,-0.62,0.15,-1.40,-0.87,0.99,-3.24,-2.02,-1.00,1.15,-0.91,-0.20
"ex3359",-0.13,1.18,0.10,3.29,3.35,2.40,4.50,3.55,3.82,2.08,3.79,2.66,2.07,0.80,1.21,-1.27,-1.04,-2.78,2.63,-0.46,-0.36,-0.92,-1.98,-1.13,0.49,-1.17,-0.37,1.74,1.43,-0.63,-0.25,-0.01,-1.29,-0.21,0.73
"ex3360",-2.38,0.66,2.50,3.83,2.95,3.97,3.89,3.15,2.88,2.17,2.52,1.36,0.96,1.27,2.33,2.09,-0.60,1.10,1.72,-0.22,0.10,0.73,2.28,1.17,2.37,0.81,-0.44,-2.27,-0.23,0.09,0.29,1.41,-1.90,0.44,0.20
"ex3361",1.16,0.00,2.75,3.69,3.55,2.63,4.78,4.46,2.52,2.47,1.55,1.32,1.15,0.40,2.43,2.11,1.48,1.02,1.26,1.00,1.55,1.72,0.71,-1.07,0.76,0.05,0.25,0.43,0.19,-1.99,0.25,0.39,0.67,-0.21,0.45
"ex3362",0.84,2.75,2.05,4.14,4.00,3.51,6.18,5.19,2.97,2.10,1.63,1.49,0.19,-0.40,0.76,-0.05,-1.12,0.77,-0.28,1.54,1.38,-1.30,0.26,-0.28,0.35,0.72,-0.22,0.06,-0.03,-0.75,0.27,0.38,-2.54,-0.13,0.43
"ex3363",-0.74,0.51,-0.05,1.05,-0.47,1.07,-1.00,-0.08,0.25,2.25,2.71,3.61,4.42,4.67,5.98,3.90,4.03,3.68,3.04,-0.19,-0.56,-1.57,0.28,-0.12,-0.65,-0.62,-1.27,0.54,0.03,-0.20,0.14,-1.59,-0.97,-1.85,-0.63
"ex3364",-0.99,2.15,1.00,1.07,-0.00,0.91,0.44,0.24,-1.14,1.62,0.79,2.58,3.55,5.54,5.23,3.61,3.29,2.44,2.18,0.94,-0.40,-0.74,0.29,-0.11,1.06,0.64,1.31,-1.89,-0.76,-1.98,0.78,0.13,0.17,1.66,1.83
"ex3365",-0.38,-0.48,0.26,-0.20,0.46,0.78,1.19,3.67,4.22,4.04,4.60,4.95,3.26,3.58,4.39,2.33,2.18,-0.22,-2.04,1.63,-0.63,-0.36,-0.25,0.41,-1.65,-0.27,-1.10,2.23,0.50,0.86,-0.97,0.04,-0.75,-0.17,-1.23
"ex3366",1.30,0.68,0.39,1.88,2.94,5.06,4.47,3.84,1.00,1.49,2.03,-0.55,0.74,0.64,0.40,0.74,0.65,0.86,0.25,-1.61,1.17,-0.53,-0.37,-1.05,-1.65,-0.34,0.69,0.38,-1.18,-2.87,0.31,-1.12,1.46,1.50,-0.50
"ex3367",-0.75,1.04,2.41,1.09,3.95,4.54,3.95,3.82,2.89,3.19,1.73,-0.42,1.36,1.17,2.60,0.50,1.13,-0.60,-2.88,-0.90,0.97,0.25,-0.17,-0.25,-0.63,-2.28,-0.57,-0.20,1.13,-0.51,1.97,-0.50,0.49,0.87,-0.61
"ex3368",-0.27,-0.73,0.98,-1.04,0.13,-1.56,0.02,2.29,4.13,2.83,3.63,4.93,3.54,4.87,4.90,3.25,3.45,1.55,1.53,-0.14,-1.22,2.23,0.14,0.68,-0.66,-1.52,-1.07,0.47,1.22,0.55,-0.84,0.09,0.27,1.05,1.75
"ex3369",1.00,0.68,2.60,1.23,2.85,3.00,4.45,4.78,4.85,2.38,5.25,2.77,1.09,-0.51,0.27,-0.77,-0.32,-0.82,0.41,1.34,1.50,0.64,-0.43,0.55,-1.42,0.49,-0.52,-0.55,-0.11,-0.72,-1.65,0.13,-1.53,0.60,-0.93
"ex3370",-0.11,0.96,2.63,2.04,3.96,4.61,6.47,5.29,2.69,4.06,2.19,0.62,0.65,0.65,-0.99,-0.50,0.33,0.37,0.65,1.19,-1.73,1.25,-0.80,-1.04,-2.46,-0.28,-0.34,2.21,-0.36,0.14,-1.70,1.58,-0.46,-0.70,-0.05
"ex3371",-1.57,0.17,2.02,3.15,2.67,2.50,5.22,4.17,3.71,2.24,2.01,1.71,-0.41,1.63,0.92,0.79,1.03,-0.44,0.75,0.07,-0.39,-0.35,1.56,-0.25,0.29,0.88,3.19,0.34,-0.25,-0.13,1.03,0.20,-0.01,0.08,-0.01
"ex3372",-0.77,-0.55,0.01,3.62,0.90,3.66,2.94,4.10,3.75,3.81,4.06,2.68,2.74,1.81,1.36,0.12,-1.14,-0.23,0.18,-0.16,1.74,1.36,-0.08,-0.90,-0.73,-0.24,0.59,-0.35,-0.46,-0.93,-2.12,1.55,1.12,-1.34,0.27
"ex3373",0.01,-0.42,1.44,-0.12,-1.36,-0.05,1.14,0.44,-0.02,3.38,3.37,1.01,1.10,4.03,5.34,3.85,3.90,2.18,1.38,1.64,0.22,-1.97,-0.94,-0.14,0.87,1.89,-1.21,0.24,-1.53,0.55,-1.24,-0.48,0.34,0.52,-2.31
"ex3374",-2.07,-0.35,1.89,4.52,4.04,4.22,5.18,5.86,4.76,2.97,3.02,2.83,0.18,0.55,0.82,0.16,1.41,-0.23,-0.38,-1.22,-0.48,0.29,-0.02,-1.69,-1.24,-1.45,-0.36,1.38,-0.19,0.93,-0.88,1.20,1.89,-0.82,-1.07
"ex3375",-0.19,2.48,1.55,-0.26,0.67,1.07,2.72,4.13,3.53,3.85,3.08,4.43,1.90,2.09,1.87,1.12,0.94,0.63,1.13,1.85,0.71,0.36,1.37,-0.40,-0.52,-0.42,-0.90,0.98,-1.32,-1.33,0.54,0.40,0.03,-0.79,-0.01
"ex3376",-0.69,1.54,1.77,0.38,2.44,2.60,3.91,2.55,3.44,4.10,4.10,2.14,1.44,0.59,-0.95,0.06,0.77,-0.55,0.33,-0.46,0.25,0.25,-0.39,0.35,1.54,0.29,-0.95,-0.15,-1.77,0.61,0.58,-0.53,-0.91,0.27,0.85
"ex3377",0.23,0.28,0.60,-0.37,0.62,-0.61,0.98,1.78,2.88,3.37,4.90,3.65,3.54,5.29,4.22,4.14,0.56,0.72,1.31,0.44,-0.10,1.08,1.17,-0.00,-0.56,-1.97,-0.17,1.19,-0.52,-0.44,0.11,0.97,-0.22,1.79,0.23
"ex3378",-0.70,0.76,1.09,3.54,4.58,2.75,4.67,3.67,5.22,4.06,0.17,1.55,0.93,1.61,2.34,0.27,0.17,-0.53,1.40,-0.57,-0.81,1.31,1.14,1.73,-1.74,1.19,0.44,0.80,-1.12,-0.07,0.58,-0.77,0.64,1.14,-1.20
"ex3379",-1.12,-0.57,1.97,1.60,2.73,2.62,3.89,4.59,4.34,4.69,4.25,1.95,0.17,1.31,1.49,-0.04,-0.40,-0.71,0.22,0.39,0.28,-0.16,-0.03,0.24,-0.22,-0.05,0.31,0.02,0.08,-0.83,-0.21,0.84,0.70,-1.38,0.45
"ex3380",-0.97,1.04,0.70,1.68,3.26,4.51,4.55,5.55,4.82,3.35,1.63,1.44,1.56,-0.70,-0.26,1.18,-2.52,0.46,-0.05,1.42,-0.43,-0.38,0.11,-0.08,0.28,0.70,1.07,-0.68,-1.04,-0.30,-1.07,0.28,-0.10,0.13,-0.58
"ex3381",-0.13,-0.49,-1.08,-1.78,-0.19,-1.25,0.99,1.52,3.30,3.46,4.80,3.75,3.82,4.41,4.15,2.50,0.03,2.15,1.75,2.04,-0.32,0.27,0.68,1.82,0.38,1.03,1.75,-1.25,0.13,1.39,1.26,0.25,1.84,-0.36,0.63
"ex3382",1.13,-2.25,1.01,-0.43,2.55,1.25,2.54,1.03,-0.94,1.85,1.65,3.02,3.96,2.92,6.42,3.10,2.68,0.86,0.50,1.78,0.93,1.54,-0.35,-0.06,0.24,-0.01,-1.30,1.42,1.19,1.18,0.37,0.50,0.25,0.02,-1.60
"ex3383",-1.47,-0.58,0.62,0.53,-0.41,0.36,2.38,3.23,3.12,5.47,5.24,5.03,4.56,3.20,1.26,0.08,-0.95,-0.89,0.14,-0.21,-2.15,-0.07,-1.10,2.07,-1.08,-0.38,1.57,-1.44,1.28,-0.08,-0.85,0.65,-0.40,0.22,-0.62
"ex3384",0.76,1.19,-0.90,1.76,0.14,1.01,3.28,3.04,2.92,4.98,6.28,4.20,3.92,1.90,1.80,1.41,-0.80,0.05,0.57,-0.63,-1.52,-0.84,0.61,-0.00,0.19,-1.13,2.47,-1.32,-0.37,1.17,-0.09,-0.38,0.58,-0.50,0.31
"ex3385",0.06,0.39,1.12,0.25,0.63,0.24,-0.89,-1.02,-0.77,2.00,1.23,3.64,5.57,2.48,6.09,5.21,2.21,1.63,0.14,-0.72,0.71,-0.38,-0.15,-0.23,-1.18,0.42,-0.68,-0.90,0.80,-2.00,-1.58,0.20,1.69,1.59,-1.19
"ex3386",0.66,0.62,1.19,4.36,2.60,3.73,5.38,2.51,4.75,3.23,4.13,2.12,-0.37,-0.18,1.32,-1.00,0.53,-0.78,0.74,-0.03,1.06,0.26,-0.47,0.40,0.37,0.91,-0.61,0.27,0.47,-1.06,-0.51,0.01,0.25,0.25,-0.09
"ex3387",-0.74,-0.78,0.47,1.09,-1.34,2.00,2.46,1.93,4.35,6.29,5.24,6.04,4.59,5.51,-0.05,0.80,-0.19,-0.41,-0.27,-1.03,0.52,-0.88,0.45,0.86,0.69,-0.58,0.28,1.61,1.83,-0.55,0.28,0.47,-0.04,-0.30,-0.32
"ex3388",1.79,0.25,-0.69,-0.53,1.26,1.71,2.74,2.82,4.36,3.92,6.31,3.71,2.74,1.81,2.60,0.28,1.24,2.41,0.76,-0.40,-0.58,1.25,1.58,-2.04,-0.63,-0.71,0.35,-0.69,1.68,0.46,-0.83,-0.09,-1.52,-0.08,-0.68
"ex3389",-0.38,-0.60,1.77,1.58,4.68,5.68,5.28,3.11,3.44,1.16,2.01,2.37,-1.26,1.51,-0.59,-0.55,1.11,0.34,-0.29,0.47,0.34,1.26,1.49,1.12,-1.89,1.32,0.50,-2.53,0.22,1.31,-0.64,-0.83,-1.13,2.30,-0.70
"ex3390",0.85,-0.26,-0.41,0.07,-0.33,0.84,2.47,2.18,0.71,1.54,4.84,3.64,4.48,3.52,2.82,4.22,2.44,2.34,2.75,0.79,0.23,0.00,-0.14,-2.03,-0.98,1.74,0.44,-1.30,-1.20,-1.40,-0.25,-0.45,1.26,1.01,0.49
"ex3391",0.50,-1.36,1.28,0.08,1.59,2.10,2.37,2.14,2.05,1.54,2.90,0.12,3.73,3.43,3.11,3.59,2.04,2.38,1.41,1.19,1.86,0.68,-0.62,0.97,0.32,0.90,1.61,-0.01,-1.28,0.81,0.15,-0.59,-0.07,-0.35,1.38
"ex3392",0.54,0.85,1.60,2.41,1.85,3.39,6.38,2.86,3.86,2.22,3.22,1.96,1.57,1.59,2.34,0.85,1.03,0.47,1.98,-0.92,-1.48,1.25,0.13,0.82,-0.86,0.88,0.48,1.57,0.97,1.64,-0.75,-0.39,0.50,1.02,-0.18
"ex3393",0.14,-0.60,-0.04,1.11,0.93,1.86,0.07,0.70,0.21,2.22,3.15,2.54,3.15,2.79,3.21,4.68,1.69,3.11,1.92,1.12,0.23,0.70,0.16,1.00,0.82,-0.72,0.05,-0.17,-1.22,0.11,-1.41,-0.32,-0.41,2.28,-0.10
"ex3394",-1.54,0.04,1.12,1.16,2.98,3.75,7.98,5.48,2.82,3.45,3.76,2.55,-0.17,0.95,-0.27,1.60,0.37,-1.05,1.57,0.28,1.37,1.78,0.77,0.18,-0.78,-0.65,0.29,0.30,-0.31,-0.75,1.84,-0.50,0.64,-0.95,1.37
"ex3395",0.33,-2.78,1.14,1.38,2.82,4.92,4.32,5.31,3.91,5.07,3.97,2.64,3.32,2.90,0.43,1.30,1.53,-0.70,-0.73,1.11,0.63,-1.82,-0.21,-0.51,-0.76,0.58,-1.26,-1.49,-0.63,0.87,-0.55,0.46,0.53,0.31,0.45
"ex3396",-1.42,3.79,1.23,2.88,4.55,4.73,3.79,2.67,4.69,4.10,0.96,-0.05,1.23,2.37,1.02,0.76,-0.82,0.49,-0.22,0.26,-1.23,-0.28,-0.59,-1.67,2.03,0.81,1.19,-0.26,-0.04,0.24,0.65,1.23,1.25,-0.08,-0.60
"ex3397",1.08,1.61,0.81,-0.40,2.49,2.11,2.89,0.33,1.79,1.18,2.18,1.51,4.91,3.24,4.20,4.35,3.15,2.10,1.79,1.47,1.03,-0.93,-2.36,-0.52,1.43,0.06,0.90,-0.56,-1.20,0.36,-0.17,-0.10,0.07,0.40,1.92
"ex3398",0.39,-1.72,2.13,0.36,1.13,0.35,-0.95,-0.38,1.23,2.18,3.49,3.67,2.53,4.50,6.10,4.46,3.90,1.63,2.47,3.19,-0.52,-1.92,0.58,0.72,1.90,-0.60,-0.59,-0.35,-0.69,0.99,-0.29,-1.56,-0.09,0.58,-0.92
"ex3399",-0.48,1.05,0.78,1.97,3.92,4.91,6.26,6.93,4.28,2.79,2.37,0.75,0.68,-0.11,2.08,0.13,1.30,0.24,0.47,-0.09,-0.01,0.36,1.99,1.44,-1.28,2.07,-1.37,1.88,-2.39,1.30,-0.26,-0.06,0.43,-0.03,-0.63
"ex3400",-0.68,-0.25,-0.00,1.83,0.81,-0.53,-0.08,1.86,2.09,1.80,4.40,4.83,4.15,5.09,4.48,3.38,1.22,0.81,3.00,0.72,0.45,-0.59,-0.93,-0.05,-0.46,-0.40,0.92,0.80,2.02,-0.75,-0.51,-0.17,-1.54,0.24,0.64
"ex3401",-1.40,-0.57,-0.31,0.07,-1.10,-0.93,0.24,0.86,1.90,1.90,2.98,3.18,3.03,5.70,3.56,1.13,2.86,2.89,2.71,1.77,-0.85,-1.22,-0.55,0.48,-1.96,1.13,0.02,-0.34,1.65,0.30,0.23,-0.52,0.60,1.37,0.91
"ex3402",0.77,-0.09,-0.06,-0.34,1.46,-0.24,-0.49,2.15,2.14,0.15,3.81,5.04,4.08,5.26,3.80,4.17,4.10,3.85,1.61,-0.31,0.92,-0.10,2.42,0.10,0.45,0.76,0.41,0.00,-1.31,1.22,-0.31,0.41,0.01,1.03,-0.37
"ex3403",-1.22,-0.23,0.33,1.08,1.32,0.14,1.49,2.78,3.28,2.50,5.87,4.61,3.47,2.28,2.71,2.51,0.37,-0.44,1.04,-0.69,-0.41,1.20,-1.09,1.11,1.35,0.85,0.63,-0.04,-0.04,-0.37,0.90,0.67,1.60,-0.01,-1.04
"ex3404",-0.06,-0.42,-2.86,-0.47,0.13,0.83,3.72,1.58,3.68,4.20,5.19,3.70,4.96,5.96,2.21,2.03,1.30,0.26,0.83,2.23,0.33,-0.90,0.40,-0.65,-1.87,1.07,1.46,-0.63,2.29,-0.92,0.87,0.81,0.44,0.49,0.31
"ex3405",-1.14,0.92,1.48,2.86,2.78,0.30,4.40,3.76,2.41,3.67,1.44,1.81,2.48,2.23,2.85,2.53,1.93,1.98,1.61,0.67,-1.89,-0.71,0.77,1.32,0.83,0.21,-0.37,-0.15,0.16,0.27,-1.03,-0.82,-1.51,1.41,1.19
"ex3406",0.71,-0.32,1.01,1.10,2.77,4.08,4.04,2.74,1.44,0.38,2.75,1.39,2.61,2.15,3.65,1.34,1.56,0.79,1.05,0.04,-1.08,0.64,0.45,-0.54,0.44,0.71,0.31,-1.01,1.26,-1.50,-2.20,0.41,-0.29,-1.08,-0.96
"ex3407",-0.06,0.48,0.98,1.59,2.53,1.62,4.62,2.55,2.40,2.73,3.31,1.65,0.72,1.58,4.90,2.15,2.09,0.51,0.98,1.82,1.81,0.86,-0.16,0.75,-0.24,0.27,0.67,1.07,-0.17,-1.00,0.92,-1.78,-0.80,-0.24,0.35
"ex3408",-1.17,1.41,1.87,1.95,3.08,6.01,6.00,4.56,2.69,4.71,2.22,1.36,-1.66,1.00,-0.01,-1.21,-0.43,-1.09,1.37,0.39,-0.16,-0.13,-0.10,-2.09,2.51,1.48,-0.05,1.54,0.78,0.00,-0.02,-0.67,-0.54,-0.16,0.16
"ex3409",-2.48,0.45,-0.21,-0.16,2.46,1.22,4.48,5.51,3.46,1.45,4.90,4.97,3.54,2.92,0.10,0.18,1.72,1.14,-0.01,0.50,-0.45,1.65,-0.94,-0.41,-1.87,-0.84,1.95,-0.72,-0.02,-0.08,-1.47,1.62,0.73,-1.74,1.25
"ex3410",2.45,-0.89,0.16,-0.09,-0.95,0.20,1.57,3.02,4.56,5.34,5.70,6.13,4.06,3.14,1.97,1.51,1.38,1.12,0.87,2.30,0.03,-1.50,-0.89,1.27,-0.23,-0.15,1.06,-0.17,-0.81,0.79,0.54,-1.41,0.62,-0.28,-0.92
"ex3411",1.71,1.38,1.25,-1.74,-0.04,1.65,1.64,3.40,4.84,5.43,4.81,3.75,2.10,4.16,2.03,-0.94,0.13,-0.45,-0.25,-0.89,0.37,-1.03,0.69,0.70,-0.22,-1.85,0.39,-0.49,-0.88,-1.87,-1.76,-0.37,-0.71,-0.87,1.16
"ex3412",0.33,-0.19,-0.36,1.79,-0.32,2.47,0.11,3.71,3.02,2.43,4.55,4.19,3.19,3.33,3.99,2.38,0.83,-0.07,0.15,-0.04,-1.03,-1.11,0.47,1.10,-0.84,-0.30,0.24,1.26,-0.79,1.79,1.58,0.16,0.27,0.68,-1.60
"ex3413",0.89,0.56,0.39,2.61,-1.51,2.67,4.44,2.25,2.98,5.94,4.21,3.29,2.71,2.31,1.42,0.65,1.62,1.14,-0.83,1.07,0.43,-0.35,0.08,0.97,0.29,-0.08,0.91,-0.11,1.13,0.74,0.36,0.75,-1.05,1.08,-0.19
"ex3414",1.93,1.26,1.09,4.03,4.59,3.62,4.90,5.22,3.09,3.86,1.50,-0.40,-1.46,-0.68,-1.30,-0.27,-1.14,-2.35,-0.16,-0.37,0.82,-0.35,-0.56,0.49,-0.21,-0.70,1.31,-0.26,-0.88,-0.93,-0.81,-0.25,-0.64,0.28,0.82
"ex3415",-0.85,3.21,0.67,-0.53,0.63,-1.23,-1.55,0.90,-0.50,1.38,0.47,4.32,4.78,5.16,7.10,3.67,2.93,4.75,4.01,1.51,-0.66,-0.25,-0.47,-0.24,1.17,1.59,0.92,-1.90,0.48,-0.24,-0.16,-0.92,1.22,-1.58,1.10
"ex3416",0.11,1.40,-1.33,-0.67,-0.20,0.29,0.41,1.12,2.01,4.80,2.11,3.90,5.31,4.87,2.98,5.57,2.05,1.54,1.11,-1.38,-0.20,-2.26,0.69,-0.34,0.62,-0.65,-0.72,-0.88,0.66,-1.60,-1.36,1.64,-0.35,0.69,-0.20
"ex3417",0.64,1.64,-1.75,0.05,0.93,0.50,2.23,1.78,4.11,4.17,4.27,5.17,3.91,2.80,1.60,1.18,0.88,0.27,0.89,0.61,-0.75,-0.49,-0.67,0.54,0.07,-0.37,-0.89,0.74,-0.19,0.90,0.01,-0.27,0.29,-0.89,1.22
"ex3418",-0.55,1.15,0.51,0.13,0.41,2.81,1.98,2.28,4.81,5.82,6.93,2.65,3.12,4.04,3.82,-0.21,-0.05,0.67,1.22,0.56,-0.19,-0.64,-1.32,-0.06,-0.44,0.90,-1.03,-1.34,0.23,-1.37,0.31,0.22,0.75,-1.70,-0.62
"ex3419",1.56,0.38,0.11,1.13,3.31,3.28,5.43,3.70,2.11,2.87,1.70,0.26,0.82,0.81,1.62,2.01,1.10,1.28,0.94,-0.75,-0.64,0.67,0.50,0.69,0.92,-0.21,-0.04,-0.97,-0.16,-0.16,-0.46,-0.11,-1.20,-0.22,-0.17
"ex3420",-0.00,0.36,1.04,-0.10,-0.84,1.48,1.68,1.68,2.08,3.35,5.24,4.92,3.55,2.02,0.65,4.37,1.77,-0.01,-0.69,-0.54,-0.03,0.21,-0.09,0.18,0.73,0.88,-0.81,1.01,-0.22,2.15,-0.87,-1.28,-0.20,0.82,0.98
"ex3421",-1.49,0.99,0.22,1.15,3.42,2.58,4.87,1.91,3.98,2.96,1.97,2.20,1.50,2.50,1.51,3.26,3.09,0.21,-0.55,1.77,0.72,-0.40,-1.47,0.62,1.01,-1.62,-0.78,0.92,-0.07,0.29,0.36,2.49,0.46,-1.75,0.12
"ex3422",0.33,0.11,-1.79,-0.84,-0.69,2.17,1.93,1.97,1.59,4.15,2.93,5.96,4.42,3.57,2.94,3.19,0.92,-0.36,0.14,-0.10,-0.13,-1.17,-1.67,0.09,1.10,-1.88,0.94,0.04,0.68,-1.41,-0.28,-1.59,-0.94,-1.08,0.51
"ex3423",-2.19,0.92,0.25,-0.12,-0.30,1.25,0.87,0.07,2.03,1.93,3.93,4.65,4.04,3.85,1.24,4.93,0.85,-0.92,0.96,-1.10,0.62,-1.29,0.80,-0.43,-0.34,0.68,0.52,1.01,0.18,2.49,-0.38,0.26,1.89,1.22,-0.61
"ex3424",-0.75,-0.50,0.49,-2.20,-0.86,1.12,1.52,0.69,1.79,1.00,3.26,3.86,3.34,5.48,3.81,3.48,2.98,1.52,1.71,1.47,-0.89,-1.54,1.44,2.14,0.18,0.05,-0.97,1.03,1.09,0.46,1.17,-0.94,0.60,-0.18,-0.46
"ex3425",-0.92,-1.11,1.86,-0.76,0.92,1.34,0.14,4.22,4.95,4.62,5.62,4.82,4.30,3.59,2.20,3.71,1.15,1.48,0.55,-2.18,0.37,0.63,-1.46,-0.95,0.62,1.82,1.31,-0.79,1.49,1.24,-0.32,-0.76,1.45,0.43,0.01
"ex3426",0.73,-0.02,-0.39,2.06,-1.20,-1.12,1.33,2.36,2.37,5.58,4.80,3.07,3.45,2.95,2.68,1.66,1.56,-0.14,0.32,-0.25,-0.02,-2.15,1.61,0.29,1.00,1.90,-3.43,0.39,0.28,-0.14,-0.54,0.54,-0.10,0.19,-2.25
"ex3427",-0.40,-0.45,0.81,1.26,0.11,-1.65,0.62,0.71,0.42,2.95,0.90,3.53,4.46,5.38,7.83,5.61,3.06,0.69,2.17,-1.00,-0.46,-1.37,1.10,-1.14,0.60,-0.09,-0.32,-0.99,0.82,0.44,0.05,0.02,0.25,-0.40,1.25
"ex3428",0.13,1.87,1.53,1.81,3.03,3.81,3.30,2.69,4.71,3.66,2.10,2.43,-0.65,-1.77,-0.23,-0.36,1.45,0.47,0.64,-0.41,1.62,-0.30,0.28,0.22,0.02,-1.38,0.25,-0.98,-0.44,0.77,-1.27,0.84,-0.45,-0.14,0.62
"ex3429",0.12,-1.71,0.25,-0.59,1.60,1.92,1.67,3.76,2.05,4.54,5.93,3.93,2.08,2.92,0.68,2.18,-1.61,-0.42,-2.51,0.17,0.90,-0.08,0.48,0.65,-0.12,0.59,-1.46,0.07,-0.51,-1.25,-0.31,-0.82,-1.58,0.07,0.53
"ex3430",0.19,1.29,0.94,2.27,0.46,3.94,4.59,2.55,3.30,2.49,2.17,1.92,2.54,3.15,1.35,2.98,0.99,1.21,-0.17,1.54,0.80,0.64,1.48,1.40,-0.97,1.61,0.22,-0.15,0.53,-0.89,-0.07,1.25,0.59,-0.73,-2.50
"ex3431",1.67,-1.12,-1.40,-0.66,0.22,2.15,2.31,-0.16,3.45,3.38,2.91,4.12,4.72,2.99,5.22,2.95,0.80,2.03,-0.84,0.58,-0.59,-1.60,0.04,0.22,-0.81,-0.56,-0.63,-0.95,-0.23,0.75,-0.94,0.06,-0.70,1.01,0.47
"ex3432",-0.27,-0.10,-2.80,0.47,0.51,-1.62,1.06,2.61,3.81,4.69,5.36,3.34,4.57,2.46,2.03,0.61,0.23,-1.49,-0.61,0.29,0.82,-0.84,-0.45,0.95,-1.79,-0.22,1.01,0.58,0.35,0.40,-0.97,-1.46,-0.36,0.99,0.77
"ex3433",0.63,-0.97,-0.19,0.46,-0.09,-0.46,2.24,4.47,2.18,3.73,4.22,4.97,4.64,3.89,2.73,0.91,0.14,-0.25,0.10,-1.11,0.95,-0.66,0.46,0.35,-0.36,-0.98,-0.27,-0.50,0.52,-0.21,0.42,0.06,1.05,-0.51,1.54
"ex3434",-2.16,0.24,0.94,-1.12,-0.16,0.79,1.07,0.92,1.80,2.34,3.73,3.70,4.14,3.67,2.62,3.65,2.91,2.75,0.42,-0.28,-1.03,0.86,-0.05,-1.09,1.02,-0.06,-0.38,0.83,-1.06,-1.88,-0.26,-0.12,-1.07,-0.74,-0.52
"ex3435",1.63,0.46,0.56,-0.74,-0.02,1.02,0.88,0.96,-0.20,4.02,-0.19,4.61,3.53,5.82,7.13,4.40,2.79,3.97,1.52,0.40,-0.14,-1.44,0.50,0.37,-0.78,-0.93,1.78,1.35,-0.49,-0.44,2.46,-0.06,-0.75,0.47,0.98
"ex3436",0.71,0.71,2.39,2.28,1.95,5.19,6.36,5.13,4.83,3.10,4.61,2.82,1.66,1.82,1.07,-1.07,0.12,-1.10,0.11,-1.47,-0.41,1.20,-0.75,0.32,0.54,0.37,-1.36,-0.23,-0.81,-0.28,0.57,0.15,-1.67,0.97,-2.51
"ex3437",-0.24,0.39,0.41,0.59,-0.86,2.86,1.25,3.21,-1.37,1.36,0.88,2.58,4.34,4.24,4.15,5.68,2.94,2.67,-0.53,-0.39,0.93,0.04,-0.95,0.04,1.32,-0.37,-0.28,-1.47,0.85,0.59,0.22,-0.71,-0.86,1.24,1.01
"ex3438",-1.05,0.42,-0.18,0.28,1.47,2.88,4.78,4.97,4.13,2.60,4.28,4.38,1.81,1.23,1.23,0.27,0.32,-1.71,-1.65,-0.37,3.12,-0.14,-0.20,-0.20,2.03,-0.50,1.24,0.25,0.42,-0.22,1.19,0.48,2.58,1.25,-0.33
"ex3439",0.10,0.32,0.76,0.02,1.00,1.78,1.37,2.55,1.10,3.77,4.29,5.51,3.92,6.07,2.04,3.56,0.53,1.44,-0.50,0.50,-0.64,1.49,0.46,0.49,-0.68,-0.51,1.33,-0.31,-2.92,-1.32,-2.35,0.38,2.03,-0.35,-0.20
"ex3440",0.70,0.17,-0.19,2.72,0.94,1.90,1.56,2.73,1.32,0.84,1.24,-0.57,3.11,3.10,4.52,4.27,2.40,0.51,0.89,0.73,0.85,0.07,0.89,-0.35,-0.99,-1.13,-0.38,-1.28,-1.53,0.76,0.65,-0.55,0.58,1.11,0.87
"ex3441",-0.50,0.84,0.77,1.64,2.38,3.87,3.38,3.61,4.38,2.32,2.40,0.73,1.09,1.08,-0.66,0.39,1.96,-0.03,0.95,-1.71,0.08,-0.24,0.30,0.01,0.33,0.20,-0.20,-0.54,1.34,0.30,1.04,1.16,-1.62,-0.22,1.26
"ex3442",-1.16,-0.96,0.60,0.14,0.26,-0.26,-1.44,-0.18,1.40,1.66,1.90,4.06,4.10,4.58,6.02,4.45,4.58,2.23,3.66,0.80,-0.42,0.27,1.43,-0.29,0.68,-0.25,0.41,0.53,0.17,0.00,-1.31,-0.37,0.40,0.75,0.07
"ex3443",-1.86,1.79,0.51,2.65,3.58,4.57,4.11,2.58,4.10,1.33,2.18,3.26,2.85,0.20,0.70,-0.29,2.06,2.43,1.33,1.28,0.69,-1.12,-1.28,0.20,1.22,-1.53,-0.29,0.09,0.15,0.05,0.24,0.88,-2.05,0.31,-0.43
"ex3444",0.22,0.47,2.45,2.47,3.58,4.56,5.92,2.86,2.14,1.29,2.39,1.68,0.29,1.89,-0.08,0.72,-0.87,1.91,0.22,-0.38,2.05,1.53,1.42,1.24,-1.09,-0.16,0.01,0.33,0.86,-0.40,0.20,0.75,0.82,0.24,-0.20
"ex3445",-0.54,0.43,-1.02,2.00,-0.65,0.61,2.46,3.59,1.07,5.91,4.45,4.56,4.40,4.09,3.09,3.15,0.26,0.68,0.98,-0.17,-0.58,0.78,0.92,-0.86,-0.95,-0.42,0.49,-0.17,1.28,-0.16,-0.00,-0.17,-0.02,-0.83,-0.21
"ex3446",-0.88,0.41,1.23,-1.52,0.54,2.49,5.49,5.86,4.79,4.63,3.80,3.49,2.23,2.47,0.97,-0.38,1.58,0.75,-1.17,-0.08,0.73,1.72,0.00,-1.15,-0.12,1.52,1.55,1.40,0.71,-0.95,0.10,0.54,0.21,0.33,1.45
"ex3447",0.88,0.39,1.48,1.22,0.53,2.31,3.35,5.29,5.46,5.09,4.68,4.03,0.86,0.56,-1.05,-1.00,0.05,0.93,0.15,0.13,0.13,1.25,1.52,0.39,0.93,-1.55,0.05,-0.46,0.43,0.85,-0.08,-0.89,1.78,-0.27,-0.47
"ex3448",0.10,-1.19,0.23,0.02,0.00,2.41,3.63,3.23,4.32,4.49,4.65,4.45,4.73,2.30,1.82,0.17,-1.17,-0.54,-0.33,-1.26,-0.60,0.36,0.66,0.10,-0.07,-0.36,-0.65,0.83,0.36,-0.44,1.30,1.96,0.78,1.23,1.41
"ex3449",-0.51,0.42,-0.12,1.83,1.23,1.42,3.72,3.46,3.40,4.30,4.97,1.71,0.83,1.05,0.57,0.64,-0.99,-1.03,-0.59,-0.27,2.49,-0.74,1.48,0.41,-0.64,-0.40,-0.69,1.33,-0.67,-0.77,1.42,-0.34,0.46,0.90,0.19
"ex3450",0.48,0.67,-0.84,-0.19,-0.92,0.00,1.34,-0.44,0.35,0.55,1.80,3.18,3.12,3.68,5.58,2.38,2.56,1.85,1.94,0.84,-0.04,1.22,-2.30,-0.87,-0.10,-0.49,1.13,-1.73,0.67,-2.02,-1.54,-0.16,-0.40,-0.11,0.19
"ex3451",-0.33,1.34,-0.80,0.87,0.59,2.19,1.55,0.78,0.76,3.79,1.97,3.32,3.29,4.14,2.71,3.53,4.55,2.12,1.65,-0.65,1.14,-0.98,0.01,0.54,0.96,-1.14,-0.58,0.37,0.23,0.99,0.48,-0.06,0.03,1.04,1.80
"ex3452",3.35,1.20,1.64,-0.55,0.83,1.19,-0.95,2.03,1.51,4.58,5.39,3.95,3.10,3.97,3.70,3.72,0.81,1.80,1.80,0.01,0.45,1.22,0.86,-1.29,-1.38,1.31,-0.94,-0.32,-0.35,0.49,0.63,-0.42,-0.56,1.05,-0.72
"ex3453",-0.33,-0.79,1.54,1.92,3.21,3.74,5.12,4.52,3.57,2.09,1.55,1.89,-0.14,0.96,0.24,0.29,1.88,0.17,-0.83,0.36,-0.89,-1.65,-0.16,-0.18,0.58,0.11,2.04,-1.23,-1.82,0.61,1.04,0.29,1.06,-1.94,-0.31
"ex3454",-1.71,-0.57,2.95,0.94,3.55,3.98,5.47,5.01,2.49,1.92,2.15,1.23,1.54,1.41,0.63,1.32,0.82,0.27,-0.56,0.13,-0.59,0.01,0.40,0.30,-0.68,-1.06,-0.18,0.94,0.30,-0.33,1.07,0.59,0.21,-0.13,-0.49
"ex3455",-0.55,0.39,1.34,0.24,-0.36,3.47,3.75,3.21,1.47,1.57,0.52,3.01,1.77,2.51,0.97,2.87,2.77,1.53,2.16,1.31,0.07,0.25,-0.09,-2.52,0.78,-0.50,-0.03,-0.31,-0.81,-0.67,0.40,1.02,-0.07,-0.31,0.53
"ex3456",-0.13,-0.56,-0.24,2.29,1.24,2.03,0.37,3.62,3.90,3.87,5.67,4.44,4.01,4.93,1.39,1.55,0.81,-0.39,0.76,0.26,0.73,0.37,2.03,0.94,2.65,-0.52,0.37,-1.23,-0.34,-1.30,-0.14,0.75,-2.32,0.82,-1.11
"ex3457",0.32,0.68,2.77,1.53,4.24,4.22,5.26,3.89,3.61,5.13,3.90,1.93,0.50,2.06,0.96,0.21,0.33,-1.00,0.19,-0.82,1.86,-0.64,-0.97,0.02,-0.09,-1.34,0.33,-0.27,1.35,-0.14,-0.36,0.19,-0.31,0.95,0.47
"ex3458",0.82,-0.49,1.12,-1.14,-1.02,-0.31,-0.14,3.72,4.61,4.87,7.06,4.49,2.78,1.35,1.57,1.86,1.56,-1.10,0.20,-0.41,0.07,0.34,1.95,1.23,-0.31,-0.60,-0.15,3.17,-1.54,-0.67,-0.09,-0.81,-1.66,-1.84,0.96
"ex3459",-0.68,-1.11,1.44,3.10,-0.01,2.18,2.51,2.96,1.11,2.34,-0.09,1.56,1.62,2.83,3.91,0.86,3.04,1.55,-0.04,-2.64,1.44,0.22,0.93,-0.55,0.36,1.15,0.81,-0.36,1.94,-0.30,-1.17,1.48,0.62,0.18,0.86
"ex3460",-0.09,1.63,-0.46,-0.23,-0.87,0.99,1.23,3.57,4.40,3.49,4.95,5.14,2.77,2.66,3.92,1.07,0.58,-1.74,0.54,-0.83,0.62,0.23,-0.05,-0.12,-0.46,2.38,1.42,0.54,0.34,1.68,0.62,0.39,0.65,-0.68,-0.77
"ex3461",-0.55,-1.22,-0.57,2.14,0.37,1.34,0.73,-0.90,1.97,1.37,3.37,2.89,3.21,3.95,4.77,2.25,3.90,3.47,2.73,1.06,-1.73,0.27,-0.51,-0.34,0.02,-0.36,0.76,-1.35,-1.08,0.17,1.12,-1.16,0.49,-0.17,-0.93
"ex3462",0.13,2.43,0.57,2.79,3.32,1.25,4.00,2.80,2.31,2.15,3.00,0.92,1.64,-1.03,0.65,1.56,2.37,1.97,0.38,-1.25,-0.79,0.88,1.09,2.06,0.03,0.70,0.17,-0.67,-0.36,-0.19,0.72,-2.43,0.20,1.04,0.43
"ex3463",-2.27,0.38,-0.29,0.02,-0.23,1.31,-0.01,1.79,1.73,4.97,4.77,4.71,2.94,5.48,5.44,3.71,4.31,1.42,-0.48,2.52,-1.54,-0.79,1.49,0.73,-0.10,-0.50,0.52,-0.25,1.57,-0.55,-0.92,0.98,-0.57,-0.66,-0.27
"ex3464",0.55,0.79,-0.77,0.42,-1.12,1.59,0.08,0.98,1.92,1.34,3.15,1.58,4.44,3.80,5.49,4.47,2.78,1.64,0.28,1.02,-0.40,-1.12,1.14,-0.94,-0.62,0.37,-1.36,1.01,0.64,-0.33,0.41,0.95,-0.33,1.74,1.71
"ex3465",0.47,0.31,1.83,-1.45,0.80,2.23,2.53,3.37,4.57,3.02,6.36,5.12,1.18,3.37,1.48,-0.25,0.41,1.63,-1.66,-1.89,0.53,0.10,-0.34,1.57,1.74,1.59,1.00,-0.03,0.18,-2.12,-1.06,0.23,-0.47,-0.62,-0.23
"ex3466",-1.79,0.07,1.92,3.27,4.74,3.91,4.72,2.79,3.50,0.38,1.13,0.24,1.48,3.05,-0.22,1.44,1.29,2.15,-1.82,0.29,1.32,-0.50,0.12,-0.48,-0.24,1.09,-0.48,-0.68,-0.30,-0.37,1.98,0.52,-1.21,0.72,-0.88
"ex3467",-0.14,-0.17,0.79,-0.67,1.37,0.33,2.80,4.09,3.88,4.59,6.54,5.10,2.46,4.96,3.90,0.42,-0.21,-0.07,-1.13,2.31,0.08,-0.50,-0.05,-1.23,-0.25,-0.49,0.13,-0.56,0.71,0.69,-0.64,-1.11,-0.80,-0.08,-0.18
"ex3468",1.63,1.43,-0.21,0.93,0.55,-1.47,1.04,-0.18,0.31,-1.17,2.68,3.57,4.04,4.96,4.24,4.50,4.82,1.97,0.93,-0.50,1.89,-0.28,-1.57,0.41,-1.12,-1.08,-1.44,-0.95,1.08,-0.92,0.29,0.29,1.15,1.30,0.35
"ex3469",-0.82,0.29,0.24,1.44,3.60,1.27,-1.51,0.12,0.37,-0.06,1.09,2.36,2.23,4.71,4.38,4.69,4.63,1.64,-0.36,1.48,1.00,-0.71,-0.76,0.38,-2.23,0.42,-1.31,1.09,0.39,-0.18,-0.55,0.81,1.25,2.24,0.72
"ex3470",-1.60,-0.30,-0.10,1.39,0.23,1.01,0.82,0.74,2.05,0.06,4.74,1.61,5.15,4.22,4.74,3.12,2.26,3.52,1.60,0.67,0.73,-1.27,0.27,0.84,1.31,-1.36,-1.67,0.31,0.26,-0.70,0.45,-0.43,0.44,1.02,0.32
"ex3471",-0.00,1.74,2.18,2.79,4.47,4.98,4.23,2.67,3.82,1.97,1.88,1.38,-1.67,-0.83,1.64,0.08,0.33,0.16,0.28,-0.54,0.06,-0.25,0.02,-0.10,0.54,0.89,0.11,0.73,0.46,-0.62,-1.06,1.11,0.48,-0.07,0.58
"ex3472",-1.81,0.72,-1.02,2.10,0.79,1.82,3.23,2.93,2.69,3.44,5.51,5.62,3.40,2.84,1.42,-0.63,-0.91,-0.45,-0.21,-1.14,0.17,-0.82,-0.57,-1.70,-0.49,0.21,0.41,-0.52,0.70,1.50,-0.41,0.81,-0.44,-0.63,-0.24
"ex3473",-0.34,-0.68,-0.88,1.10,0.90,0.35,1.24,3.54,3.11,2.52,5.41,5.86,3.68,5.39,2.87,2.99,-0.50,1.00,0.78,1.77,1.59,0.25,-1.40,-0.36,1.79,0.10,0.37,-0.16,-0.20,-0.98,0.70,2.72,-1.06,-0.11,-0.08
"ex3474",0.02,1.57,1.87,2.23,5.14,4.88,3.89,5.82,1.66,1.64,2.42,2.32,1.08,2.12,1.09,-0.75,2.31,1.73,0.04,1.76,0.14,1.24,1.75,0.84,1.65,-1.07,1.68,1.88,-1.40,2.54,0.72,-0.17,-0.31,-0.25,-1.80
"ex3475",-0.73,-0.04,1.04,1.99,-0.42,2.11,1.84,1.56,5.08,4.29,5.39,4.91,3.37,2.12,0.13,1.33,1.36,-0.20,0.06,1.78,0.91,0.66,-0.27,-0.17,0.56,1.62,0.53,0.13,0.05,-1.63,1.73,0.11,1.94,0.64,1.37
"ex3476",1.40,0.52,-0.67,-1.92,0.85,0.89,-0.78,0.53,0.74,-0.11,1.72,4.39,3.33,5.58,4.17,4.87,3.94,1.35,2.02,2.77,0.51,-1.08,-1.06,1.50,-0.54,-0.54,-0.10,0.92,0.82,1.30,1.43,0.29,1.30,-0.12,-0.68
"ex3477",0.74,0.90,-1.23,-0.15,-1.60,0.07,-1.76,-0.55,-0.05,-0.00,3.09,3.33,2.76,5.30,6.42,2.99,4.49,-0.48,0.76,1.65,-1.37,-0.72,-0.02,-0.19,-0.85,0.97,-0.14,-0.21,0.02,-0.55,-0.40,1.67,1.17,0.71,0.23
"ex3478",-0.26,-0.59,-0.43,3.07,1.19,2.01,3.30,5.23,4.53,3.78,1.89,2.03,1.99,-0.26,1.34,-1.63,0.75,0.75,-1.19,0.17,0.30,-1.28,1.13,-1.01,0.20,1.70,-1.43,1.10,-0.07,-0.70,0.02,1.95,-0.14,1.56,-0.44
"ex3479",0.79,-1.13,0.20,0.39,-0.38,0.12,0.48,0.56,0.07,3.36,4.16,3.56,4.02,4.52,4.92,3.53,4.80,1.08,0.55,0.23,0.80,-0.47,1.10,-1.25,1.06,-1.42,1.33,-0.43,0.59,-1.81,-0.98,-1.06,-0.14,1.90,0.02
"ex3480",0.36,1.26,2.32,0.92,2.66,5.43,4.70,3.38,3.83,3.04,2.75,0.93,1.48,0.27,0.47,-0.62,0.91,1.23,0.17,1.38,-0.01,-0.08,0.18,-0.26,0.42,0.88,1.55,-0.57,1.40,-1.44,0.80,0.86,1.07,-1.34,2.59
"ex3481",-1.30,0.61,-0.85,1.47,0.07,0.72,-0.09,0.21,-0.02,3.44,4.07,2.00,3.08,4.51,3.96,5.11,0.90,1.33,1.10,0.60,1.56,-0.05,-0.39,0.40,-0.87,-2.37,-0.53,1.95,-1.06,0.27,-0.89,1.14,-2.26,-0.81,-1.64
"ex3482",0.85,-0.55,0.25,0.83,0.22,0.77,0.77,1.35,3.07,2.90,4.51,3.28,3.68,4.36,3.76,1.48,1.61,2.70,1.11,-0.64,1.31,1.08,1.61,-0.92,1.37,0.47,-0.52,0.99,-1.86,-0.44,-0.00,-0.20,-0.90,-0.83,-0.64
"ex3483",-0.26,3.11,1.75,1.23,3.76,2.57,6.55,4.04,3.95,1.90,1.84,1.11,1.11,-1.25,2.59,0.33,1.42,0.09,-0.50,-0.25,-0.24,0.87,2.20,-1.89,0.41,0.78,1.18,0.72,-0.51,1.15,0.19,-1.19,0.13,-1.41,0.99
"ex3484",-0.41,0.78,0.38,4.82,1.35,3.30,4.91,3.89,4.07,4.19,4.43,4.44,2.96,1.05,1.56,0.49,-0.99,1.08,0.95,-1.05,0.57,-0.89,1.02,2.08,-1.35,1.26,-0.24,-0.79,0.47,-0.99,0.55,0.13,0.11,-1.95,-0.47
"ex3485",-1.09,0.45,-0.64,0.47,0.47,0.78,1.60,1.41,3.18,7.05,6.76,4.46,2.21,3.34,0.27,1.53,0.12,0.09,-0.45,-2.21,0.75,-0.30,1.27,-0.42,0.07,0.69,1.02,-0.68,-1.06,0.32,0.72,-0.15,0.11,-0.46,0.27
"ex3486",1.38,-0.22,1.15,0.17,0.22,2.10,2.89,4.34,2.10,5.45,4.36,3.58,4.67,2.72,0.23,2.84,-0.37,1.96,0.51,0.01,1.68,-1.88,-1.09,0.35,-0.89,0.47,-0.37,-0.24,0.24,-0.44,0.48,0.52,2.62,-1.09,-0.20
"ex3487",-0.25,-0.47,0.53,0.19,0.05,-0.62,0.31,-1.85,-1.10,1.03,2.48,3.76,3.84,3.72,4.30,3.42,2.30,3.09,1.85,0.38,-0.74,0.33,-0.95,-0.76,0.68,1.08,-0.90,-0.08,1.22,1.56,-0.41,-0.31,1.03,-0.85,-1.37
"ex3488",-0.68,1.39,0.98,2.28,-0.08,3.27,3.13,2.51,3.24,2.90,1.86,1.29,1.89,2.32,1.47,3.24,0.51,4.74,0.29,2.25,0.49,-2.19,0.23,0.50,-0.40,0.06,-2.82,-1.30,-0.77,0.21,0.82,0.04,-0.21,-0.47,0.64
"ex3489",0.74,0.06,1.16,1.20,-0.29,1.24,1.59,3.00,3.64,5.24,4.05,3.81,4.73,2.65,2.66,2.03,0.02,1.96,-0.45,0.35,-0.15,0.57,0.58,-0.75,1.10,2.06,0.18,-0.40,1.44,0.19,1.33,0.87,0.20,1.02,1.10
"ex3490",-2.35,0.89,-0.41,0.28,1.17,0.30,0.38,-0.38,0.01,3.60,2.09,4.69,3.65,5.43,5.85,2.24,2.77,2.14,1.21,-0.32,1.26,-0.90,0.64,0.78,0.54,0.12,0.88,-1.81,0.27,-1.97,-0.38,-0.86,-0.32,1.43,-0.68
"ex3491",-0.78,0.97,0.74,1.58,2.70,3.87,6.12,4.90,4.60,2.87,1.05,2.69,1.12,1.47,0.55,0.29,-1.03,-1.20,-0.10,-1.08,-0.21,1.34,-0.94,-0.94,1.00,-0.45,-0.75,-1.77,0.47,-0.46,1.82,-0.48,1.99,0.46,-0.60
"ex3492",0.48,1.25,2.19,2.06,4.67,4.03,5.57,4.70,3.71,3.56,3.32,-0.10,1.33,0.06,1.13,0.76,-0.30,-1.56,-1.26,0.12,-0.40,-0.30,0.74,-2.25,-0.55,1.22,0.61,-0.26,-0.60,-0.03,0.03,0.94,-2.21,-0.66,0.28
"ex3493",1.81,0.62,1.83,3.69,2.90,3.61,4.59,4.86,2.84,4.18,4.36,1.23,3.03,-0.30,0.01,0.42,0.37,-0.08,-1.10,-0.62,-0.26,1.83,0.65,0.10,1.87,0.87,0.86,-0.41,-0.02,-0.24,0.79,0.23,-0.53,0.64,-0.62
"ex3494",-0.11,-1.51,0.15,0.40,2.21,2.27,4.28,3.33,2.80,4.20,4.62,2.08,2.48,1.27,1.49,2.12,-0.25,0.26,-0.31,1.41,-0.10,0.30,-0.28,-0.45,1.19,-1.40,-1.39,-0.94,-1.32,1.41,-1.13,0.76,1.36,1.62,-1.85
"ex3495",-0.33,0.62,2.91,1.64,4.40,3.64,4.56,3.02,3.34,2.76,2.99,2.81,1.70,2.07,2.15,1.91,1.84,1.10,0.66,1.85,0.58,-0.01,-1.31,0.98,0.63,-0.21,-0.64,-1.79,-0.03,0.96,-0.56,0.78,0.45,-1.33,-0.59
"ex3496",-1.47,0.69,-1.88,-0.55,2.00,0.14,1.35,2.37,2.13,5.01,4.24,2.94,3.46,2.60,2.51,0.55,1.97,-0.70,0.69,2.19,-0.82,-0.14,0.52,1.21,1.22,-0.23,-0.19,0.10,-0.98,0.65,0.40,-1.44,1.95,-0.43,-1.05
"ex3497",0.81,0.53,0.47,1.34,0.74,1.95,3.48,2.15,3.62,3.91,6.33,4.98,5.65,3.94,3.88,0.37,0.08,-0.33,0.64,-2.16,0.50,-0.40,-0.72,1.89,0.51,0.22,0.59,-0.57,-0.12,0.80,1.33,1.19,2.50,-0.90,-1.24
"ex3498",0.58,1.85,3.43,4.49,3.09,4.86,4.74,5.66,3.17,2.48,2.85,0.74,0.92,2.51,2.07,0.33,-0.95,0.32,0.70,-0.08,1.79,-0.41,-1.48,-0.13,-0.76,-0.50,-0.17,-0.72,0.47,-0.71,2.40,0.75,-0.55,0.92,1.25
"ex3499",-0.08,-1.62,0.57,-0.53,-1.68,-0.98,1.14,1.15,2.04,3.06,2.99,2.60,3.75,5.48,3.59,2.83,1.64,2.07,1.90,0.96,-0.06,1.75,-0.31,0.35,-0.41,0.21,-0.31,2.40,0.54,2.71,-0.03,-1.28,0.75,-0.74,0.85
"ex3500",1.37,-1.13,1.44,1.86,0.75,1.99,2.04,0.73,0.36,3.18,3.01,2.92,3.68,3.58,3.42,3.03,2.82,1.37,1.60,0.45,-0.27,-1.44,-1.95,0.63,-0.90,0.58,0.73,1.45,0.89,1.45,-0.31,-0.44,-1.90,-0.61,-0.28
"ex3501",-0.24,1.35,-0.43,-1.19,-0.32,0.53,1.48,-0.34,1.62,-0.23,2.67,3.72,3.98,4.07,5.02,2.80,1.68,4.77,1.81,1.69,1.78,0.76,0.90,0.46,2.42,1.15,-0.41,-0.88,2.42,-1.24,-1.10,-0.72,-1.73,0.20,0.05
"ex3502",-0.36,-0.67,-0.49,1.89,-0.75,1.16,0.83,-0.09,0.48,0.46,2.99,1.76,3.33,4.28,6.69,4.56,4.00,2.50,1.00,0.10,-0.47,-1.36,-1.24,0.86,-0.46,-0.07,1.76,0.25,0.22,1.45,-0.65,2.12,-0.55,-0.33,0.86
"ex3503",-0.75,-0.02,-1.09,-0.51,0.98,0.96,3.38,4.00,3.20,6.70,6.33,4.64,3.55,3.28,3.26,-1.49,-1.01,1.10,0.15,-0.30,0.33,0.21,0.87,-0.09,0.39,0.00,0.06,-0.24,-0.44,-1.54,-1.26,-1.55,-0.83,-1.28,-0.23
"ex3504",0.93,1.30,2.33,2.51,4.71,4.06,5.21,5.50,1.99,3.54,2.15,1.78,-0.20,0.93,0.74,-1.18,-0.52,-0.02,-0.16,-1.89,0.28,1.09,0.68,-0.15,-0.45,0.43,-0.58,1.40,0.65,-0.40,-0.98,-1.15,-3.44,-2.38,-0.72
"ex3505",-1.53,1.24,0.72,1.33,1.28,2.17,3.43,3.08,3.64,4.78,5.37,2.42,1.09,2.99,1.84,0.39,2.15,-0.89,-0.13,0.51,-0.14,1.31,-0.15,-0.57,1.29,-0.11,0.05,-1.79,1.32,-0.07,0.44,0.47,1.38,0.11,-0.04
"ex3506",-1.94,-0.09,-0.95,0.55,-0.03,2.31,1.31,1.41,-0.31,1.20,-0.13,1.72,3.47,3.78,6.81,2.65,2.76,1.07,2.69,2.09,-1.75,-0.51,-0.95,0.03,1.16,-1.80,0.30,0.29,0.32,0.36,0.22,0.45,0.76,0.38,0.20
"ex3507",-0.16,1.70,-0.04,-1.84,-0.57,0.93,1.40,2.91,4.01,5.36,6.93,5.73,3.92,1.13,1.48,0.59,0.91,-0.94,0.20,1.68,0.55,-0.33,0.04,0.49,0.70,-1.56,-0.06,0.64,1.58,2.58,-2.72,1.45,1.98,1.47,-0.01
"ex3508",-0.01,1.16,0.88,2.98,2.14,2.21,0.35,-0.67,0.33,1.68,1.58,2.55,3.73,3.59,4.12,2.47,3.42,0.16,1.34,1.50,-0.96,-1.20,-0.78,-0.36,0.12,-0.45,-0.41,1.05,-1.60,-2.30,1.05,-0.10,0.87,0.53,-0.21
"ex3509",-1.21,0.87,1.15,3.61,3.38,4.37,5.71,4.67,5.90,3.38,2.14,1.64,0.31,0.79,-1.68,-0.40,0.03,0.88,-0.13,0.05,1.78,-1.30,-0.21,1.23,0.16,-0.43,1.82,0.78,0.19,0.54,-1.63,0.56,-0.91,1.36,0.91
"ex3510",-0.08,0.72,-1.14,1.31,-0.30,-0.31,1.67,2.74,4.32,5.13,5.80,6.15,4.92,3.84,4.47,1.21,0.52,0.12,-0.26,-1.69,-0.76,-0.98,-0.60,-0.99,0.42,0.46,-0.87,0.27,-0.84,0.70,2.32,0.22,0.58,1.38,1.17
"ex3511",2.65,-0.21,-0.51,-0.17,0.89,3.03,2.84,4.29,5.32,3.53,5.15,3.88,-0.03,0.77,-0.34,-0.15,-0.24,-0.83,0.41,-0.47,0.98,-1.64,2.06,-1.11,1.01,-0.33,1.10,-0.17,0.60,-0.05,-0.25,-0.19,-0.81,-0.98,-0.50
"ex3512",0.61,-1.29,-0.92,-0.59,0.72,1.76,1.14,1.70,3.08,3.54,5.41,4.51,3.15,2.76,4.57,3.27,2.03,0.20,0.90,1.13,1.79,1.10,-1.22,-0.49,-0.91,2.24,-1.03,-1.84,-0.11,0.44,0.30,0.88,-0.10,0.61,0.05
"ex3513",2.49,2.13,1.96,0.02,-0.82,0.90,2.64,2.78,2.93,5.76,5.45,3.57,4.56,3.08,2.90,2.61,-0.70,2.51,0.92,-0.82,1.57,-0.17,-0.29,-1.54,-0.84,0.59,-0.75,-0.41,2.00,-0.37,-0.95,-0.55,-0.01,0.65,-0.87
"ex3514",0.05,1.95,1.23,-0.41,1.47,-0.41,3.04,3.97,3.03,3.54,6.61,5.90,3.35,4.22,4.59,4.51,0.84,-0.03,-1.39,-1.01,0.16,0.13,0.76,0.86,0.17,-0.53,-0.47,1.06,-0.49,-0.30,0.88,1.43,-0.95,0.42,-0.84
"ex3515",1.25,-0.66,-0.51,0.48,0.95,2.75,2.55,2.86,2.64,4.80,3.67,3.71,2.66,1.95,3.00,1.46,-2.31,0.52,-0.26,-0.37,0.62,-1.56,-2.20,-1.27,-0.91,0.71,-1.01,1.25,-0.12,1.39,1.10,0.69,-1.23,-0.08,1.49
"ex3516",-0.25,-0.65,0.86,1.80,0.61,-0.43,3.18,2.01,1.49,3.79,5.19,4.41,5.47,3.53,4.95,5.26,1.05,2.36,2.04,1.77,-0.03,1.05,-0.11,0.24,0.40,-1.01,0.75,0.62,-0.70,0.76,2.09,-1.19,-1.52,0.48,1.76
"ex3517",-0.70,1.46,0.53,1.73,0.83,2.65,3.91,2.53,1.92,1.07,2.88,3.79,3.75,2.97,3.80,3.18,3.26,0.43,1.40,0.88,-0.26,0.58,-0.42,0.96,-1.06,-1.53,0.50,0.27,0.47,0.46,-0.64,1.03,0.30,-0.51,-1.22
"ex3518",-1.17,1.67,1.65,-0.94,2.70,1.77,3.76,1.54,1.89,3.00,2.43,2.02,2.43,3.87,3.13,1.38,1.66,1.01,1.01,0.97,-0.38,-1.47,-0.32,1.95,0.14,-2.29,-0.06,0.32,0.14,-0.44,0.66,-0.36,-0.56,0.23,1.23
"ex3519",-0.80,1.09,1.14,4.44,1.60,2.13,3.76,3.62,4.87,5.33,2.98,5.21,2.64,2.09,-0.08,0.74,0.95,0.30,-0.69,1.40,0.56,0.15,0.78,-0.36,-1.05,0.77,0.44,-0.01,-0.04,-0.17,-0.55,0.20,2.00,0.60,-0.53
"ex3520",-0.01,-0.38,1.39,1.40,1.00,2.61,0.09,3.62,2.01,1.52,2.11,3.33,1.11,4.23,4.24,1.92,2.49,2.50,2.96,0.02,0.93,0.12,0.34,1.77,-0.02,0.16,-1.23,-0.89,-0.52,0.02,0.88,0.79,0.91,-0.31,-2.31
"ex3521",-0.04,0.99,1.82,1.71,1.14,2.30,3.69,3.35,2.78,2.20,5.41,3.71,2.76,0.97,0.27,-0.35,-2.18,0.50,0.38,0.25,1.52,-0.08,0.27,0.53,0.88,-2.21,0.26,-0.15,1.03,0.40,1.27,-0.55,-0.27,-1.30,1.49
"ex3522",-0.54,0.20,2.01,-1.50,0.09,1.55,1.13,1.16,1.44,2.06,4.96,2.88,3.13,4.68,3.48,2.64,1.07,2.09,1.89,-0.74,-0.07,-1.64,-1.20,0.42,0.52,-1.00,2.16,-1.11,-1.18,-1.10,0.96,-1.74,-0.48,0.31,-1.08
"ex3523",-1.16,-0.89,-0.87,1.56,-1.49,-0.55,1.56,0.89,1.78,1.14,0.60,3.18,4.09,5.37,4.60,5.41,2.61,1.67,1.80,1.85,0.45,-0.17,0.80,-1.05,-0.83,-0.87,0.15,0.19,0.81,1.10,1.48,-1.73,-0.82,-1.74,-0.89
"ex3524",-1.34,-0.58,-0.51,-0.95,-0.57,-0.38,2.61,3.67,2.46,2.46,5.28,5.35,2.94,2.96,2.06,0.02,0.33,-1.40,0.87,0.51,0.39,-1.10,-0.38,0.38,-0.54,-1.03,1.27,0.29,-1.16,0.72,-0.50,0.50,-2.12,1.01,0.77
"ex3525",-0.14,-0.16,0.17,-0.33,0.68,1.00,1.13,1.06,0.93,2.20,3.20,4.19,3.95,3.98,5.91,6.06,3.68,2.68,2.17,2.44,0.71,1.44,1.14,0.37,0.55,-0.13,-1.82,0.41,-0.70,2.44,-3.10,2.16,0.71,0.94,1.04
"ex3526",-0.99,-0.38,0.21,0.35,-0.71,1.25,2.65,0.55,0.89,1.98,4.30,4.09,5.53,4.66,2.63,2.07,1.74,-0.23,2.56,1.22,-0.27,0.08,-0.29,-0.44,-1.02,-0.54,-2.23,0.20,0.77,-1.61,-0.13,0.19,0.24,1.26,2.07
"ex3527",1.28,-1.54,1.59,1.07,1.32,4.29,4.00,4.23,3.70,4.43,4.59,4.45,0.26,2.12,1.80,1.63,-0.41,0.45,-0.62,1.10,-1.14,-0.60,1.18,-0.96,1.32,2.21,0.95,-0.13,1.40,0.75,-0.32,0.64,-0.57,0.62,-0.81
"ex3528",-0.39,1.06,0.30,2.78,0.40,2.03,2.19,2.52,1.98,1.87,1.07,2.35,2.28,2.88,2.70,1.21,2.84,3.88,0.92,-0.53,-0.67,0.04,0.45,-0.39,0.76,-1.35,0.61,-0.90,0.78,-1.03,-1.82,-0.89,-1.70,-0.43,-0.76
"ex3529",1.57,-0.52,1.81,2.84,2.90,3.49,5.06,5.21,2.74,5.32,2.58,3.45,0.69,1.83,1.15,0.93,0.21,0.58,-0.63,-0.18,0.45,-1.70,-1.01,-1.28,-0.14,-0.09,1.36,-1.49,-0.81,-1.26,0.97,0.74,0.70,-0.19,1.33
"ex3530",1.55,0.98,0.78,2.05,1.88,2.18,3.88,4.83,3.99,6.09,3.68,3.11,2.07,2.39,0.98,0.49,-1.18,0.82,-2.55,-0.60,-0.86,-0.58,1.42,1.37,-0.93,-0.88,0.17,-1.14,1.38,-1.57,-0.47,-1.67,0.14,0.76,-0.56
"ex3531",1.31,1.37,-0.30,0.65,0.72,0.35,1.29,1.05,1.55,3.80,4.21,3.85,3.21,3.06,3.61,4.71,2.91,2.22,1.00,1.24,-1.01,-0.24,-0.66,0.25,1.36,-0.35,-0.46,-0.27,-2.01,-0.16,0.15,0.67,0.82,-0.41,0.97
"ex3532",0.09,-0.30,1.00,1.25,1.19,1.78,2.38,2.51,0.34,1.62,0.97,3.42,3.59,3.19,3.58,1.72,2.83,1.82,1.54,0.58,-0.05,-0.48,-2.78,-0.75,0.64,0.70,-1.79,-1.65,1.62,-2.46,1.18,-1.37,-0.30,-0.49,-1.08
"ex3533",1.18,-1.20,3.39,2.83,1.47,5.99,6.54,5.46,4.41,3.95,2.87,1.93,2.09,3.09,-0.67,1.12,1.35,-0.28,0.78,0.81,-1.57,0.01,0.92,2.00,0.58,-0.33,-2.47,-0.18,0.51,-1.13,-3.09,1.66,0.03,-1.69,2.29
"ex3534",1.50,-0.20,-0.08,0.38,2.82,-0.88,-0.58,-0.29,-0.86,0.66,1.75,3.49,4.15,3.99,4.58,2.73,2.04,3.06,1.92,1.62,0.08,0.76,0.83,0.90,-1.21,1.00,0.02,1.30,-0.02,0.99,0.03,-2.60,0.60,1.00,0.79
"ex3535",0.23,0.84,0.82,-0.02,1.05,0.54,-2.21,0.20,1.97,1.98,3.84,4.34,3.22,4.46,4.28,3.31,1.88,1.56,0.23,0.14,-0.11,1.06,-0.13,-1.41,1.82,0.66,0.61,0.42,0.99,1.03,0.71,0.28,-0.23,0.32,-0.34
"ex3536",-2.95,0.50,1.68,0.49,-0.28,0.16,0.80,1.70,1.35,2.68,0.96,4.89,4.29,4.96,5.72,4.82,1.57,2.35,-1.66,0.70,0.87,1.12,-1.35,1.45,-1.45,0.70,-1.33,-0.45,1.22,-0.30,-1.35,0.44,0.27,-0.07,-0.95
"ex3537",-0.62,0.86,0.08,0.22,1.32,1.91,2.88,4.21,3.91,5.76,5.33,4.77,1.91,1.86,0.09,1.82,0.60,-2.05,-0.03,0.66,1.30,0.52,0.19,0.39,-0.46,0.53,1.44,-0.07,-0.71,1.42,-0.11,-0.50,-0.69,-1.64,0.92
"ex3538",0.12,-0.24,-1.35,-0.90,-0.66,-0.29,1.08,0.56,2.04,5.99,5.10,4.08,3.32,2.39,3.94,2.38,1.07,-0.29,-0.25,0.59,0.44,-0.78,-0.17,1.29,-0.24,-0.10,0.06,-2.26,-1.44,0.88,-0.15,-0.09,0.61,1.22,-1.79
"ex3539",0.04,0.86,-1.69,-0.40,0.85,-0.14,0.49,2.16,2.76,3.38,4.56,4.90,2.72,4.25,4.91,2.73,1.51,1.55,1.76,-0.46,-0.52,-0.29,-0.41,0.60,1.31,0.76,0.21,-0.08,0.54,0.61,0.27,-0.42,1.29,0.15,1.68
"ex3540",-0.84,-1.35,0.82,0.61,0.36,4.06,1.52,2.76,3.31,5.20,5.32,6.04,4.99,3.19,1.47,2.18,0.52,-0.56,-0.84,-1.03,-0.58,-0.71,-2.00,0.12,0.74,1.36,-2.15,-1.30,-0.09,-1.70,-0.70,0.50,-0.31,0.59,0.86
"ex3541",-0.84,1.61,-0.38,-0.52,1.10,-0.64,1.32,1.21,1.13,-0.66,2.06,2.67,2.14,4.31,4.72,3.44,2.95,2.18,1.76,2.75,0.78,0.66,-0.07,1.96,-1.06,-0.82,-1.16,1.28,1.93,-1.56,-0.01,-1.39,-0.60,-1.89,1.98
"ex3542",-0.59,1.27,1.35,0.53,2.21,0.10,4.28,3.52,6.02,5.28,6.15,4.63,3.60,4.80,-0.26,0.90,1.86,2.06,0.09,-0.71,-0.11,0.06,0.22,0.03,0.22,-0.06,-1.01,0.05,0.91,-1.27,1.09,1.39,-0.59,1.50,-0.13
"ex3543",-0.48,0.18,0.54,1.32,3.36,3.37,4.24,6.04,4.47,1.68,1.07,1.72,0.79,1.17,2.19,0.53,1.58,0.67,1.96,3.06,0.18,-0.08,-1.01,-1.20,0.42,-0.49,-0.64,-3.16,0.14,0.02,-1.57,-0.25,-1.12,-0.40,0.23
"ex3544",0.44,1.46,1.70,1.67,3.32,5.42,6.45,4.67,4.63,4.91,2.62,0.34,-0.65,0.83,2.57,0.59,1.93,1.07,0.05,-1.46,0.13,-0.83,-0.71,0.41,1.33,-0.63,0.74,-0.21,-1.16,-0.03,-0.63,-0.32,-0.09,-0.90,-0.34
"ex3545",1.12,0.34,-0.42,-0.13,1.73,-0.42,-0.39,1.06,-1.37,1.76,2.04,3.74,5.43,3.70,5.19,3.80,4.09,0.88,2.13,-0.39,1.13,-0.07,1.34,-0.65,-0.99,1.07,1.27,-0.29,0.32,0.97,0.68,2.35,-2.43,0.80,1.13
"ex3546",0.56,-1.10,1.22,-0.51,2.17,0.36,1.53,2.39,2.67,4.13,5.40,3.82,5.13,4.44,2.58,2.60,-0.21,1.27,0.60,0.86,-0.42,-0.43,-0.33,-0.12,-0.56,0.09,0.83,-0.08,-0.07,0.15,1.13,-0.48,-0.92,-0.80,-0.61
"ex3547",0.63,1.60,-0.76,3.08,4.47,3.26,4.82,3.73,3.31,3.10,1.62,3.23,0.69,0.35,2.42,2.08,0.38,1.22,1.91,0.04,0.62,-0.55,-0.09,-0.53,-0.61,-0.16,2.13,-0.22,1.31,-0.40,-0.18,0.70,-1.56,-0.27,-1.18
"ex3548",-1.64,-0.27,1.21,2.69,4.29,4.05,4.23,3.58,2.17,3.38,1.76,2.70,0.78,0.21,0.01,1.92,0.39,-0.63,1.55,-1.60,1.09,-0.64,0.05,-0.50,0.43,-1.51,-0.99,-0.51,1.39,1.36,-0.17,-0.24,0.59,-0.83,-1.80
"ex3549",0.14,2.27,0.64,0.67,-2.24,0.65,-0.51,1.12,0.42,0.75,1.28,4.45,4.54,4.98,6.93,4.56,4.16,2.72,2.83,1.71,1.50,-0.17,0.32,-0.57,-0.13,1.00,-0.27,0.17,0.04,-0.64,-0.79,-0.79,1.66,-0.39,0.72
"ex3550",0.08,1.20,-0.05,0.82,-0.76,-0.31,1.56,0.44,2.59,4.31,3.13,5.38,3.07,4.21,3.22,2.33,1.79,1.50,1.00,0.24,-0.39,-2.97,-0.71,-3.16,-0.74,0.03,0.43,1.08,-0.31,0.68,1.37,-1.37,-0.42,-0.93,0.26
"ex3551",0.26,-0.49,0.56,-0.26,3.51,2.45,3.69,1.72,1.65,0.27,1.36,2.48,2.42,2.16,4.29,2.27,3.32,2.57,2.86,-1.27,1.03,0.73,-0.95,0.82,1.01,-0.14,0.89,0.95,1.15,-1.26,-0.32,0.93,0.62,-0.41,-0.78
"ex3552",-1.46,-2.88,-0.23,-0.09,-0.38,1.51,1.58,1.58,-0.09,1.61,2.14,2.17,1.29,2.68,4.07,4.77,2.97,2.60,2.07,1.66,-1.68,0.31,2.10,-2.47,-0.50,0.83,1.00,0.69,-0.04,-0.66,-0.36,1.63,-1.32,-0.40,0.94
"ex3553",0.38,-0.24,0.34,1.45,-0.12,-1.33,0.87,1.21,-0.58,0.99,1.57,3.08,5.79,2.90,4.72,3.21,3.15,3.24,1.94,1.02,-0.44,1.27,0.54,-0.50,-0.93,0.16,0.25,-1.61,0.14,-1.50,-0.83,-0.25,0.53,1.68,0.70
"ex3554",0.05,2.07,1.43,2.80,3.83,3.67,4.57,2.86,3.90,1.77,2.22,3.73,1.90,-0.38,0.50,1.18,0.51,1.19,0.01,0.10,-1.15,0.26,2.01,1.30,-0.74,-0.03,0.99,0.44,-0.06,1.78,0.77,-1.18,0.67,-0.00,-0.31
"ex3555",1.01,-0.39,0.27,0.39,-0.27,1.04,1.76,2.13,3.19,3.13,5.80,4.75,4.66,3.86,2.76,0.80,1.77,3.44,-0.59,0.12,0.18,0.07,0.10,0.23,0.26,1.04,0.41,-0.41,-0.93,-0.30,1.22,-0.05,-0.54,-1.81,-0.23
"ex3556",0.14,-0.57,-0.79,0.26,-0.15,0.58,3.02,4.15,3.46,4.07,5.06,5.25,5.08,4.73,4.09,0.49,-0.14,-0.02,0.48,-1.57,0.09,-0.76,-1.30,0.61,-0.82,-1.01,-0.52,0.60,-1.56,-1.03,-2.54,0.33,0.32,-0.29,0.25
"ex3557",0.27,0.78,4.34,2.99,2.82,4.48,6.02,5.36,3.30,3.82,1.55,1.90,1.85,2.81,0.16,0.21,0.14,0.00,-0.27,-2.58,-2.39,1.06,0.19,-1.62,0.26,0.39,-0.42,-0.20,-0.65,0.54,-0.28,0.46,1.66,-1.49,0.85
"ex3558",0.11,-0.48,1.35,-0.78,1.18,1.80,0.21,0.67,1.72,1.34,0.87,2.89,2.73,4.31,5.31,5.04,4.67,4.02,0.43,-0.02,1.25,1.50,0.62,-0.33,-0.85,0.74,-0.73,1.03,-0.54,-0.85,0.23,0.78,0.00,-1.44,-0.29
"ex3559",-0.05,0.29,-0.50,-0.28,0.64,0.65,1.53,0.76,0.87,2.85,4.43,3.74,3.89,5.48,4.97,5.45,3.39,0.97,0.59,-0.46,-1.00,1.42,-0.97,-1.07,1.03,-0.27,-0.60,-2.21,-1.21,-0.04,-0.48,-1.39,2.27,0.13,-1.52
"ex3560",-0.19,-1.17,1.39,2.15,-0.26,1.52,2.76,0.13,2.22,2.41,2.18,4.75,2.45,4.49,4.49,5.25,4.34,1.82,1.62,0.55,-0.38,0.59,0.45,1.44,0.87,-1.60,1.18,-1.04,-0.08,1.88,0.44,0.10,-0.11,-0.43,-1.54
"ex3561",-2.43,-0.44,2.05,3.73,3.17,3.96,3.03,3.94,3.70,3.49,2.34,1.14,-0.68,0.55,1.55,-0.26,1.94,0.55,0.56,0.56,0.05,-2.21,-2.59,0.54,-1.39,1.67,-0.56,-0.79,0.58,-0.40,0.81,0.32,-0.04,-0.33,0.48
"ex3562",0.18,-0.63,-0.93,0.67,-0.02,1.31,0.20,1.17,2.83,0.87,3.62,4.73,4.79,4.24,4.10,2.47,2.26,1.17,2.94,0.48,-0.06,0.01,2.09,-1.36,-1.09,1.18,0.27,-0.52,1.78,-0.90,0.96,1.28,0.76,-2.32,-0.67
"ex3563",0.31,-0.21,0.53,1.97,1.83,0.99,1.46,-0.81,2.47,1.82,3.03,1.07,3.42,3.52,6.88,5.98,3.50,3.72,0.60,1.34,-0.14,-2.16,2.43,-0.33,2.28,-1.92,-0.67,1.14,0.21,-0.14,-0.41,-0.11,-1.07,-0.93,-0.26
"ex3564",0.48,2.06,3.40,2.97,2.55,3.98,4.43,4.16,2.50,1.07,1.16,0.71,-0.01,0.41,2.28,1.63,1.06,-1.33,1.90,0.39,-1.21,-0.04,1.10,0.03,0.44,0.33,0.71,1.38,-1.10,0.82,-3.39,-0.67,0.89,-0.25,0.71
"ex3565",0.01,-0.16,0.25,0.03,3.79,2.02,3.11,4.90,3.27,3.91,3.87,2.92,0.30,3.03,1.71,2.68,-1.15,0.60,-0.56,1.97,-2.54,0.84,-1.21,1.44,-1.49,0.06,1.82,1.66,0.34,1.12,0.70,-0.50,-0.93,0.70,-1.71
"ex3566",0.40,-0.18,1.92,0.50,2.96,1.06,4.59,3.26,2.05,3.45,6.02,4.54,2.73,2.31,1.45,0.79,0.64,-0.61,0.49,0.32,-0.58,0.11,0.13,-0.83,-1.06,0.17,0.15,1.36,-0.86,-0.36,-0.49,0.76,1.06,0.35,-0.14
"ex3567",-0.06,-0.39,0.63,-1.70,0.20,-0.73,1.83,1.13,1.48,1.58,2.60,5.19,4.33,5.69,4.48,2.89,3.96,2.24,0.80,0.69,1.14,0.24,-0.50,0.46,0.04,1.42,-1.85,1.39,-1.42,-3.44,2.31,1.23,-0.91,-0.20,-0.10
"ex3568",-0.15,-0.74,0.81,-0.73,-1.44,0.53,0.52,2.62,2.61,6.74,6.35,5.21,3.45,2.02,0.44,3.23,1.85,0.32,-0.85,-2.06,-1.91,0.26,-0.95,1.15,-0.17,-0.74,1.81,1.27,-1.44,-0.19,2.22,0.83,-2.06,-1.82,-1.36
"ex3569",1.06,-0.52,-0.34,-1.81,0.97,0.54,1.67,1.60,2.93,2.16,3.79,3.80,4.23,1.99,4.16,3.48,1.20,1.37,1.20,0.45,-0.85,-0.37,-0.37,1.00,-1.28,0.39,0.62,-1.22,-0.55,1.21,2.70,-0.68,-2.73,-0.38,-0.37
"ex3570",1.64,-0.58,0.59,1.96,2.70,2.61,0.28,1.23,2.11,0.14,2.52,2.30,2.71,3.73,2.76,3.20,4.09,2.34,1.36,0.96,-0.47,-2.58,0.29,-0.42,-0.22,0.80,0.11,0.09,-0.51,1.20,-0.84,-0.93,-1.24,-0.00,-0.59
"ex3571",-0.40,0.59,1.82,2.22,4.65,5.17,5.17,4.06,3.44,2.64,2.45,2.60,1.96,0.23,0.34,-0.07,0.17,2.15,-1.39,-2.09,-0.07,-0.99,0.65,1.38,-1.96,-0.08,1.27,-1.19,0.48,0.32,0.36,-1.05,0.32,-2.30,-0.99
"ex3572",1.27,1.51,0.83,1.06,-0.65,2.06,3.01,1.25,-0.34,4.14,1.67,2.07,2.35,2.66,3.72,4.84,4.60,4.21,1.47,0.46,1.30,1.21,-0.17,1.12,0.98,-0.18,-0.35,1.44,1.25,-0.31,1.79,0.46,-0.01,1.19,-0.59
"ex3573",1.31,0.41,-0.59,-0.51,-0.06,0.70,0.23,2.95,3.08,3.88,4.69,1.83,3.50,4.79,2.34,3.16,2.41,1.84,-0.72,0.31,-0.19,0.13,0.09,-1.64,0.90,0.97,0.81,-1.05,0.20,0.60,0.12,-0.15,-1.87,-0.03,1.55
"ex3574",0.53,1.27,2.93,2.76,2.58,2.67,3.97,2.73,2.64,5.42,3.73,1.15,0.71,0.52,1.49,2.41,-1.36,1.54,0.55,0.14,-0.87,0.14,0.47,0.21,-0.76,0.59,1.04,2.13,-0.84,0.37,2.82,-0.41,2.84,-0.34,1.34
"ex3575",0.31,0.14,0.45,-0.53,-0.15,1.67,2.02,1.90,0.45,1.34,4.96,4.02,4.42,5.23,4.25,4.02,3.33,1.34,2.24,1.15,1.12,1.56,-0.62,-0.20,-0.86,-0.58,1.97,-0.23,-1.40,-0.00,-2.61,-0.12,-1.36,1.24,-0.72
"ex3576",-0.40,2.50,2.02,1.74,2.92,3.84,5.25,2.63,4.74,5.23,1.47,0.60,0.22,1.32,0.97,0.76,0.00,1.76,-1.74,-0.90,-1.10,1.10,0.96,0.89,0.56,-2.23,0.44,0.86,0.84,1.28,0.27,1.09,0.68,0.94,-0.21
"ex3577",0.24,-0.56,1.08,2.88,5.66,3.33,5.03,6.84,4.58,3.39,1.82,-0.82,-0.31,-0.33,0.15,-1.44,-0.45,0.44,0.46,-0.02,0.27,1.83,0.84,0.29,1.60,0.82,-0.87,-0.05,1.82,-0.19,0.86,-0.39,-0.21,0.59,1.80
"ex3578",-0.67,-1.03,-0.07,-1.53,0.33,0.80,2.03,1.23,2.11,3.09,3.96,4.23,2.61,2.97,1.16,1.00,0.34,1.46,-0.05,0.18,-1.31,0.22,0.28,-0.02,1.72,0.75,0.28,-1.66,-0.31,-0.74,0.14,1.91,-1.38,-0.77,-0.40
"ex3579",0.83,-0.70,1.51,0.59,1.01,-1.67,0.65,-0.13,-1.28,2.09,0.52,3.00,4.23,5.62,5.77,6.53,3.86,3.61,2.43,2.45,-0.59,1.16,-0.82,2.48,0.85,-0.90,-0.72,0.51,0.10,0.07,-1.05,0.03,-0.60,-0.73,-0.60
"ex3580",-0.97,0.35,0.56,-1.00,-0.03,2.13,1.64,3.48,1.87,2.30,4.78,3.89,4.12,2.94,2.08,1.18,0.42,-1.06,0.81,1.45,0.58,0.79,1.29,0.02,2.22,2.56,-0.15,-0.50,0.22,1.59,1.55,0.83,-0.28,1.74,-0.20
"ex3581",1.75,0.47,0.34,1.09,4.28,3.95,3.03,0.92,1.54,3.05,3.15,2.13,1.01,3.79,2.58,1.59,2.24,2.33,1.78,1.37,-0.65,1.29,0.36,-1.46,-0.49,-0.09,0.95,0.00,0.07,0.67,-0.01,1.33,-0.21,0.94,-0.15
"ex3582",-1.88,1.27,2.17,0.94,2.54,4.13,2.14,5.05,5.21,5.37,3.24,3.41,1.59,0.36,1.82,0.27,-1.33,0.07,1.32,-0.82,0.90,-0.85,0.26,-1.32,-1.36,0.14,0.85,-0.03,1.48,1.79,-1.51,-0.69,-2.13,-0.61,-0.19
"ex3583",-0.13,1.65,0.92,2.28,1.77,0.45,0.18,4.19,3.97,3.88,7.09,3.81,3.10,3.15,1.34,-0.26,-0.68,0.81,0.17,-1.77,0.04,0.33,-0.78,1.27,0.58,-0.75,-0.02,1.03,1.49,-0.44,-0.08,-0.04,2.27,-0.22,0.56
"ex3584",1.02,-0.20,0.50,0.39,0.85,0.00,2.33,2.12,1.97,1.97,2.86,2.97,3.65,2.40,4.63,3.77,2.21,1.62,1.19,-0.91,-0.72,0.28,0.03,-0.83,0.46,0.25,-1.45,-0.94,0.36,-0.89,-0.45,-0.29,-1.19,0.23,-1.54
"ex3585",-1.13,2.61,0.49,0.44,3.79,3.21,7.08,4.43,3.89,5.01,4.03,2.99,0.87,-0.59,0.63,1.46,-0.58,-0.17,1.35,1.00,-0.02,-0.31,1.21,-0.19,0.97,-2.42,-0.17,0.16,1.44,-0.91,0.52,0.04,-0.30,0.82,-0.78
"ex3586",0.17,-0.45,2.04,0.06,2.23,2.55,3.18,1.31,0.46,1.93,2.55,2.24,3.40,2.85,3.59,1.86,1.40,2.24,1.27,1.72,0.63,-0.78,-0.83,1.18,-0.92,1.33,-0.68,-2.01,0.12,1.17,-1.50,0.87,0.11,1.51,1.00
"ex3587",-0.66,-0.09,-0.27,0.86,-0.81,2.30,3.33,2.56,4.62,3.73,4.89,4.71,2.61,4.10,0.31,1.99,0.76,-1.66,-0.74,-0.41,2.20,0.19,-0.51,1.15,1.35,0.46,-0.24,0.57,0.57,-0.67,0.57,-2.46,-1.17,-1.81,0.91
"ex3588",1.72,2.67,-0.81,0.95,-1.44,0.35,1.99,1.59,1.27,4.96,5.50,4.45,5.44,2.69,1.64,1.70,1.29,0.89,0.64,-1.81,1.11,-1.97,1.20,0.34,1.27,-0.60,0.89,-1.20,1.70,-1.94,-0.07,-2.40,0.58,-0.64,1.63
"ex3589",-0.45,1.97,0.67,-0.35,-1.31,-0.45,0.48,1.09,3.94,5.77,6.65,5.27,5.63,4.44,2.67,2.46,0.72,1.33,-0.53,1.23,-2.26,-1.11,0.58,-1.08,0.06,0.83,0.23,3.59,-0.21,1.39,0.95,-1.70,0.66,0.99,2.62
"ex3590",-0.05,-0.76,-1.29,-0.70,-0.18,0.68,0.48,1.34,2.36,2.74,5.64,5.35,5.59,2.63,4.33,3.72,2.11,0.68,1.20,0.06,0.98,-0.87,-0.53,0.91,1.25,1.19,0.30,-0.39,0.03,0.62,-0.16,0.73,0.01,1.06,-1.15
"ex3591",2.09,0.39,1.10,-0.51,0.57,0.17,-1.29,0.16,0.00,2.08,2.82,4.16,4.09,3.67,6.66,3.49,5.66,2.37,1.23,-0.28,0.49,0.90,0.93,-1.13,-0.16,-2.15,-0.06,-1.24,1.57,-0.39,2.18,-0.89,0.42,1.41,0.57
"ex3592",-0.97,-0.23,1.45,2.01,2.15,3.09,1.28,2.43,2.58,1.99,1.12,1.99,4.09,3.49,3.72,1.19,2.08,1.99,2.60,-0.10,-0.29,-0.17,0.19,3.23,1.06,0.48,0.67,0.87,-1.28,0.19,-0.16,0.03,-1.38,0.56,0.10
"ex3593",1.10,-1.07,1.11,1.89,1.68,2.68,2.88,4.00,5.66,2.71,4.48,3.11,0.71,2.46,1.75,1.22,-0.63,-1.46,0.10,-1.65,-1.23,0.32,0.40,-0.99,-0.04,-0.18,0.59,-1.27,1.06,1.17,0.40,0.96,-1.69,-0.28,-0.48
"ex3594",-0.03,1.80,2.74,1.41,4.35,4.03,3.29,5.52,3.08,4.98,0.47,2.74,1.52,4.03,-0.46,-0.43,-0.16,0.18,-0.19,-0.14,0.47,-0.31,-1.17,-0.42,2.11,0.70,-0.21,-1.11,0.51,2.48,-0.24,0.54,0.96,1.24,0.40
"ex3595",-0.01,1.33,0.31,0.35,0.94,1.18,1.07,0.86,1.31,-0.55,0.86,2.20,3.63,2.04,4.64,4.06,4.03,0.96,1.06,1.17,-0.78,-0.95,-0.10,-0.43,-0.14,1.66,-1.69,0.84,-0.63,-0.26,0.55,0.24,0.51,-1.22,-0.34
"ex3596",-0.72,-0.33,0.39,0.41,0.75,-1.61,0.83,-1.17,-0.03,-0.37,3.12,2.06,4.61,4.49,6.15,5.24,3.62,2.88,2.06,-0.50,-0.99,1.72,-0.03,1.79,1.04,0.55,0.89,1.29,-0.67,0.42,0.28,-0.81,-0.87,1.39,-1.14
"ex3597",-1.01,-1.12,-0.09,1.85,4.01,3.99,4.70,4.15,3.42,4.24,5.55,3.28,3.22,1.31,0.19,-1.07,0.35,-0.31,-1.68,0.71,0.46,-1.81,0.17,1.26,1.37,0.56,-1.33,-1.10,0.48,0.53,-0.57,0.48,1.36,-1.31,0.15
"ex3598",-0.27,-0.49,-0.02,-0.02,1.64,-0.20,2.33,1.39,2.69,4.33,5.71,6.99,4.98,3.90,3.20,1.23,0.69,0.62,0.13,-0.97,-0.16,0.72,-0.68,-0.40,-0.54,-1.96,2.92,-2.95,0.17,1.07,0.08,0.44,0.13,-1.14,0.39
"ex3599",0.68,0.34,1.77,0.57,2.35,2.91,3.59,4.49,3.75,4.62,3.11,4.05,2.64,3.05,0.04,-0.29,-0.11,-0.35,0.22,-0.95,0.71,-0.95,-0.65,0.34,-0.90,-0.24,-0.50,0.11,1.42,1.25,0.43,-0.60,-0.28,1.09,0.19
"ex3600",-2.05,0.57,-1.05,0.49,1.73,1.98,5.14,3.50,2.94,4.10,5.93,4.06,2.27,1.25,2.88,1.01,-0.49,-0.87,0.43,1.06,-1.03,-0.16,1.13,0.42,-0.59,-0.11,0.76,-2.37,-0.94,1.01,0.63,1.20,-1.18,-1.51,1.08
"ex3601",0.53,2.22,1.46,1.51,1.51,2.52,4.22,2.94,2.75,1.65,1.40,1.73,0.62,0.56,2.19,2.58,-0.23,1.11,0.41,-0.62,-0.83,-0.66,0.40,-0.76,-1.23,0.47,0.90,-0.43,1.58,0.65,-0.98,1.17,-1.49,0.93,1.73
"ex3602",-1.25,-0.75,-0.42,2.79,0.78,3.14,5.47,5.33,5.68,2.48,3.91,1.53,0.92,0.52,0.84,0.83,3.34,0.91,-0.01,-0.99,1.09,-1.73,0.25,-0.84,0.74,-0.27,0.15,0.14,-0.87,-0.72,0.64,-0.90,0.80,1.05,-0.92
"ex3603",0.85,-1.54,1.55,1.05,1.41,1.83,3.07,3.10,2.16,2.31,2.90,2.07,4.14,3.10,0.65,1.62,3.06,1.90,0.06,1.37,-1.30,-1.46,0.23,0.35,2.51,0.04,-0.54,-1.55,0.68,-1.56,2.06,0.62,-2.03,0.40,2.47
"ex3604",-0.08,0.67,-1.25,-0.30,3.17,2.08,2.61,1.68,0.89,2.52,1.17,1.52,3.80,3.79,3.32,3.57,3.07,2.42,0.75,1.98,1.35,-0.17,-0.47,0.53,0.32,-0.69,-0.64,0.57,-0.76,-0.28,1.26,0.82,-1.87,0.16,0.58
"ex3605",-1.26,2.30,-2.13,-0.43,-0.81,1.35,0.80,3.33,2.87,4.56,4.77,5.43,3.30,3.85,3.80,2.63,0.42,1.42,-0.40,0.17,0.70,1.25,-0.05,-0.02,-0.11,0.22,1.02,1.28,-0.63,-1.42,-1.34,-0.99,-0.44,0.42,0.21
"ex3606",0.30,0.85,-0.14,-0.20,-1.35,1.74,0.14,0.58,-1.85,1.87,3.20,2.99,3.34,7.22,4.13,1.38,4.10,2.98,2.26,0.53,-0.50,0.35,-0.16,0.68,-0.14,0.83,-1.06,-0.33,-0.77,0.70,-0.61,-0.74,0.69,0.23,-1.07
"ex3607",0.81,-0.11,-0.01,1.00,0.12,1.58,2.33,2.65,3.70,4.61,7.17,3.33,4.16,3.29,3.55,-0.72,0.13,-1.27,-0.53,0.95,0.26,1.03,-0.88,-0.17,-0.50,0.38,1.18,-1.86,-0.91,0.94,-1.19,1.68,1.64,-0.91,-1.20
"ex3608",0.32,-0.25,1.55,3.19,2.41,4.51,7.37,6.18,3.54,0.54,4.27,-0.29,1.36,0.02,-1.64,2.39,-0.73,-0.79,-0.51,0.04,0.23,-0.77,0.71,-1.03,-0.07,0.29,0.61,0.20,-0.37,-0.56,0.04,0.40,-0.88,-1.82,0.10
"ex3609",-1.65,1.13,1.33,4.02,0.67,1.12,3.97,3.30,1.55,1.74,1.75,1.64,2.07,1.44,0.68,2.24,2.60,0.17,1.33,0.94,-2.08,-0.55,1.49,0.03,-0.17,1.29,2.13,-2.79,1.13,-0.00,-0.83,0.65,0.26,1.40,-0.39
"ex3610",-2.18,-0.27,0.02,2.30,0.64,0.00,2.32,2.77,2.90,3.50,3.48,3.38,4.74,2.89,3.00,0.65,0.57,0.18,1.17,0.27,0.57,0.47,-0.33,-0.52,-0.13,-0.30,0.35,1.95,1.32,0.74,0.63,-0.62,0.70,-1.47,-0.53
"ex3611",1.68,1.86,2.51,2.43,5.09,4.05,4.76,3.80,3.18,2.43,0.87,1.21,-0.87,0.77,1.97,0.75,0.72,-0.12,0.47,-0.50,-0.69,-0.87,-1.18,0.16,0.39,-0.31,0.81,-1.21,-0.72,1.01,1.21,-0.30,0.34,-0.36,-0.59
"ex3612",0.32,-0.55,2.20,0.51,2.44,3.94,3.12,2.56,3.21,3.11,3.72,2.48,2.52,1.39,2.95,1.53,2.17,0.33,0.54,1.87,1.47,0.84,-0.04,0.14,-0.01,-0.47,-0.04,-1.19,-1.18,-0.69,-0.32,0.42,1.65,-0.45,2.30
"ex3613",-0.45,0.79,1.35,1.59,3.60,2.22,3.93,2.55,1.13,3.36,2.49,1.84,1.95,1.88,3.34,3.66,0.69,2.42,1.12,-0.39,-0.68,-0.00,-0.66,0.18,0.28,-0.50,1.11,0.78,0.22,0.05,2.12,-0.50,1.25,-1.21,-2.20
"ex3614",-0.04,1.70,1.04,1.21,-1.01,0.91,-2.41,2.17,0.49,1.80,4.14,2.35,5.58,4.92,5.46,4.10,3.70,1.95,1.08,0.35,0.33,-1.81,-0.40,0.32,-3.46,0.05,0.70,1.18,-1.32,-0.40,-1.44,-0.78,-0.84,-0.67,-0.72
"ex3615",0.32,-0.17,0.32,-1.06,2.17,1.34,1.45,3.20,3.09,6.16,4.79,4.50,5.22,1.86,1.78,-1.66,0.45,0.63,1.31,-0.56,0.23,0.04,0.81,-1.66,0.38,0.01,0.21,1.47,0.08,-0.03,-0.14,1.51,0.31,-0.47,0.41
"ex3616",0.52,1.22,-2.52,-0.30,-0.14,0.64,-0.26,-0.19,2.89,3.47,5.72,5.68,5.24,4.50,4.05,2.10,1.79,-0.20,2.58,-0.11,-0.64,1.20,-1.27,1.44,-0.08,-0.40,0.47,0.92,0.39,0.49,0.19,-0.08,0.71,-0.00,0.23
"ex3617",0.88,0.92,-0.41,0.10,-1.56,-1.51,-0.42,1.05,2.01,0.77,2.99,2.26,2.51,5.18,4.11,5.89,3.81,1.64,1.80,1.84,-0.50,-0.58,-1.93,-0.21,0.42,0.58,2.20,-0.40,0.95,-0.33,-0.66,-2.40,-0.52,2.37,-0.90
"ex3618",-0.51,1.46,2.69,1.73,1.00,1.33,4.51,4.16,3.66,3.30,3.76,2.11,1.36,3.09,-0.82,0.47,-0.58,-0.63,0.35,-0.14,-0.92,-0.61,0.42,1.89,-0.21,0.82,-1.34,0.15,-0.78,-0.65,0.18,-0.06,0.20,-0.52,-0.25
"ex3619",-0.75,0.64,-1.22,-0.36,-2.16,-1.27,0.14,0.92,0.54,3.05,3.42,4.94,4.84,2.52,3.38,3.16,1.15,2.07,1.57,1.95,0.80,1.61,1.77,-0.31,-2.42,-1.75,0.45,-1.46,-0.59,1.02,-0.56,2.84,0.15,-0.21,-0.55
"ex3620",-0.96,0.95,-0.73,-0.30,-0.67,1.16,3.92,1.06,2.80,5.91,4.33,4.17,2.72,3.61,3.70,0.38,-0.11,-1.67,0.14,1.76,0.06,1.34,0.22,0.64,-0.68,1.19,-0.49,-1.02,0.49,0.72,0.22,-0.81,-0.97,0.99,0.52
"ex3621",-0.06,-0.14,1.59,1.97,3.02,3.13,4.03,1.92,1.87,0.51,1.17,0.24,2.29,0.73,2.20,2.65,2.62,1.20,1.67,1.22,0.38,-1.11,-0.91,-0.59,-0.39,-0.66,0.44,0.74,0.25,-2.62,-0.87,-0.10,-2.15,0.03,-0.51
"ex3622",1.01,0.71,0.01,1.32,4.39,1.69,3.97,1.32,1.91,0.80,2.33,3.37,0.35,1.35,2.62,-0.02,1.53,0.71,0.04,0.68,-1.33,0.48,1.74,-1.64,-1.21,-2.26,-1.73,-0.09,-0.50,-1.97,1.08,1.32,-0.04,0.29,-1.46
"ex3623",-0.58,0.03,-0.94,-0.46,1.40,1.78,3.78,3.68,2.45,3.36,7.09,3.92,3.25,1.29,2.62,3.42,1.51,1.62,0.09,-0.55,0.24,-0.43,0.61,0.01,0.11,-0.76,-0.51,-1.26,-0.58,0.62,-0.64,-0.19,-0.91,-0.77,-1.75
"ex3624",-0.12,1.11,2.37,3.61,5.60,5.74,6.52,4.62,3.85,3.83,0.75,1.15,-2.17,-0.42,0.40,0.79,1.08,1.76,-0.48,1.54,-0.74,-1.92,-0.67,1.58,0.83,-0.39,-0.80,0.10,0.13,-0.42,-0.81,-0.07,0.85,1.00,0.07
"ex3625",-0.29,0.32,0.92,2.29,2.60,4.84,6.75,4.43,5.08,2.68,5.29,1.88,0.30,0.82,1.26,2.06,0.19,0.78,-2.13,-2.49,-0.48,-0.64,2.21,1.00,0.06,-0.63,-1.35,-1.26,-0.01,-1.37,-0.51,0.70,-0.46,1.08,0.44
"ex3626",0.17,1.33,0.57,0.82,1.74,2.85,5.29,3.99,4.16,3.20,3.55,5.05,1.60,1.44,0.39,1.11,-0.17,0.61,-0.73,-0.02,0.49,-0.56,-0.79,-1.68,0.22,-0.86,1.15,2.67,2.43,1.09,1.36,0.97,0.24,0.85,-0.31
"ex3627",-0.25,0.73,0.55,-0.06,0.01,3.12,3.69,2.66,5.60,5.63,4.16,5.03,2.34,1.96,1.30,0.97,-1.17,-1.52,-1.03,-0.87,-0.39,-0.70,0.10,1.06,-1.01,0.03,0.20,0.13,1.56,0.44,0.11,0.10,-0.45,0.05,0.30
"ex3628",-1.50,-1.64,1.45,2.32,3.00,3.12,4.44,4.32,3.88,4.66,1.24,1.14,1.18,0.21,1.13,0.09,-1.63,-0.95,-0.48,-0.26,0.01,-1.22,0.66,1.71,-1.00,-0.32,-1.50,-0.31,-0.94,2.25,0.22,-0.45,-0.26,-0.74,-1.20
"ex3629",0.54,1.21,1.03,2.13,3.98,5.43,3.13,3.57,4.47,4.21,2.36,3.17,1.08,-0.32,0.84,0.13,-0.46,0.61,1.47,0.06,1.67,0.22,-1.57,-0.63,-1.11,-0.51,-0.63,-0.36,0.59,-2.68,-0.12,-0.12,0.24,-0.18,-0.22
"ex3630",-1.84,0.71,-1.47,-0.26,0.90,1.08,2.01,4.36,4.51,5.30,5.78,5.31,4.34,5.37,2.43,1.82,-1.09,0.98,0.34,0.45,1.17,0.88,0.70,0.28,-0.15,0.23,0.51,0.11,-0.03,0.56,-1.65,-1.52,0.51,0.49,-0.56
"ex3631",-0.54,-0.17,0.78,-0.71,1.11,1.58,0.54,2.67,3.48,4.98,6.67,5.39,3.87,2.48,1.07,0.75,-0.43,0.40,-0.81,1.05,2.30,1.77,-0.93,-0.47,1.00,0.17,-0.17,1.41,-0.69,1.32,0.43,-1.10,1.37,-0.45,0.20
"ex3632",0.28,-0.19,1.28,1.49,1.41,1.82,1.66,2.61,3.11,2.23,5.84,4.00,1.69,1.05,0.96,-0.23,-0.68,-0.85,-0.09,-0.18,-1.63,0.67,-1.50,0.42,-0.04,0.89,-0.25,-1.81,-1.55,-2.08,-0.81,-0.50,0.77,1.57,-0.35
"ex3633",0.48,-2.15,0.74,0.04,-0.35,1.14,1.01,0.01,0.19,0.44,3.26,2.76,5.51,3.12,4.83,2.07,2.95,4.21,-0.88,0.25,0.82,0.71,-0.37,-0.93,-0.75,-0.97,-1.61,0.04,-1.51,1.10,0.97,0.19,-0.48,1.00,0.02
"ex3634",1.25,0.76,2.24,2.12,3.26,5.54,4.66,2.99,4.32,3.55,2.80,3.04,1.09,0.53,-0.81,0.69,0.56,-1.94,-1.88,0.34,-0.94,0.54,-0.65,1.09,-0.36,0.40,-0.14,-0.11,0.27,-0.70,1.48,1.08,0.38,-0.45,0.29
"ex3635",0.71,-1.16,-0.39,0.05,0.41,1.09,1.74,0.96,0.39,0.75,3.86,2.34,2.74,4.35,5.75,6.40,4.31,2.42,1.08,-1.13,-1.67,-0.01,0.74,-0.63,0.49,-0.54,0.38,0.45,0.78,-0.23,0.01,-0.07,1.83,1.11,-0.45
"ex3636",0.80,0.86,2.06,1.50,1.44,3.32,3.00,3.04,2.97,1.96,2.67,4.01,2.24,2.84,2.56,2.53,2.45,2.08,0.92,-0.87,-0.91,-0.67,0.15,-0.20,-2.46,0.64,0.20,1.02,-0.45,-0.13,1.35,-0.20,1.09,-1.11,-3.48
"ex3637",0.44,-0.52,-0.28,0.50,1.09,-0.38,-0.47,0.96,1.04,4.11,3.22,3.53,4.62,5.94,5.04,2.15,1.34,1.29,1.24,-0.22,0.42,-1.05,-0.91,0.45,1.52,1.01,-0.98,0.08,1.31,-0.02,2.51,0.30,-1.73,1.49,0.77
"ex3638",1.26,0.55,0.48,2.63,3.00,4.20,3.99,3.58,3.23,1.78,1.05,-1.07,1.41,1.25,2.49,4.08,1.71,0.66,0.17,-1.53,0.45,-1.10,0.60,-0.28,-1.12,-1.45,1.38,-1.62,0.70,0.93,0.15,1.79,-0.19,2.03,-2.03
"ex3639",0.50,0.51,1.72,1.62,4.31,3.30,5.05,3.34,3.62,2.25,3.70,0.93,-1.62,-0.26,-0.19,0.88,1.37,-0.44,-0.78,0.76,0.38,0.16,0.84,0.05,1.17,0.81,1.05,-0.69,0.61,1.09,-0.61,-0.59,0.24,0.21,-1.27
"ex3640",-0.29,1.06,1.98,4.18,3.68,4.66,4.62,5.17,3.83,3.39,1.90,1.18,0.85,1.19,0.97,0.40,1.91,1.04,-1.57,-0.19,0.81,0.38,1.31,-1.68,-1.55,-0.16,0.90,-1.22,0.45,-2.03,1.13,-1.13,0.40,-0.91,0.28
"ex3641",-1.24,1.07,2.12,0.01,3.05,2.21,3.28,3.13,1.47,5.43,4.37,3.99,2.50,1.12,0.53,1.69,-0.21,-0.90,1.02,-0.68,2.19,0.94,-0.92,-0.46,-0.02,0.15,-1.06,-0.45,-0.78,-0.17,0.92,0.12,-0.16,0.69,1.25
"ex3642",1.16,-0.26,2.05,1.22,0.88,3.27,3.49,3.12,4.22,4.97,4.88,3.30,3.12,1.31,1.60,-0.20,0.22,-1.77,-1.72,-0.37,-1.43,2.62,0.05,-0.67,0.35,0.65,0.66,0.30,1.53,0.15,-0.55,0.20,-1.42,-1.12,-2.59
"ex3643",-1.41,2.13,-0.31,-0.53,-0.83,0.68,0.84,2.01,2.03,4.08,4.53,3.76,4.24,1.88,4.45,1.28,1.26,1.71,0.72,1.25,0.02,0.29,-1.41,-0.30,0.50,-0.27,0.05,-1.71,1.09,0.43,0.08,0.67,-2.42,-1.06,2.69
"ex3644",-0.53,-1.37,1.76,3.13,1.22,4.38,3.38,4.13,2.62,2.75,2.50,3.29,-0.46,2.82,1.72,1.46,1.07,1.26,0.76,0.13,-0.33,0.48,-1.10,0.98,-1.46,-0.21,-0.95,-1.24,-0.27,-0.88,0.28,-0.31,-0.61,0.46,0.30
"ex3645",0.07,1.23,1.82,-1.87,1.51,2.38,3.29,4.01,3.93,3.15,5.42,4.96,2.56,3.32,3.27,0.55,0.17,0.40,0.90,-0.83,0.76,0.25,-0.41,-1.03,-0.77,0.67,-0.29,0.79,0.19,1.62,0.13,0.81,-0.66,0.22,-0.35
"ex3646",0.75,1.14,0.10,2.69,1.28,1.33,1.95,2.64,1.18,1.55,1.15,3.61,3.76,2.68,2.96,3.14,3.37,0.65,1.14,-0.79,0.43,1.21,-0.41,1.92,1.01,0.77,-0.22,-0.21,0.64,-0.62,0.90,-0.31,0.72,-0.03,1.36
"ex3647",-2.71,-2.21,1.42,1.51,-0.61,-0.37,-0.24,1.56,-0.13,1.06,2.77,1.28,5.05,5.97,6.77,4.32,2.12,1.28,2.86,-0.10,1.59,0.86,0.74,0.31,0.00,0.38,1.75,-0.15,0.12,1.63,-0.90,0.13,0.01,-0.17,1.54
"ex3648",-0.00,1.13,-0.80,1.86,2.71,1.90,4.04,3.50,3.55,5.40,5.55,3.99,2.60,3.06,0.57,-0.83,0.32,-0.18,-0.71,-1.71,-2.62,0.94,0.31,0.12,0.14,-0.23,0.10,-1.46,-0.29,-1.12,2.38,0.19,1.31,-0.15,-0.57
"ex3649",0.15,0.04,2.49,1.92,2.45,6.17,6.62,4.59,3.12,3.27,3.42,0.49,1.89,0.98,2.13,1.13,0.40,0.15,-0.06,1.63,0.37,2.28,-2.88,0.44,0.09,-1.46,-1.14,0.74,-1.08,-2.12,0.69,-0.67,-0.41,1.41,0.09
"ex3650",0.28,-0.44,1.53,1.58,3.56,4.36,5.29,3.20,5.88,3.62,2.82,2.34,0.27,-0.01,-0.40,0.06,-1.99,-1.05,0.79,0.39,-0.44,-1.10,-0.72,0.12,0.93,0.06,-0.72,0.42,-0.38,-0.05,-0.95,0.02,0.61,1.96,1.50
"ex3651",0.36,0.97,2.44,-0.01,0.10,3.02,3.41,0.89,1.85,2.85,2.82,2.68,2.11,2.61,3.96,2.62,3.07,1.14,0.88,0.72,1.07,-2.16,-0.30,-0.07,0.73,-0.46,-0.43,0.78,0.66,0.11,-0.05,0.94,-0.05,0.13,0.54
"ex3652",-1.53,-0.63,-0.45,1.74,2.91,2.64,5.44,5.37,3.94,2.29,4.14,2.88,1.15,2.02,-0.30,1.29,-0.42,1.45,-0.58,-0.72,-0.32,-0.66,-1.37,-0.21,-1.12,-0.37,0.44,-0.79,-1.14,0.65,-0.76,0.26,1.03,-0.01,0.61
"ex3653",1.47,1.38,2.31,4.06,3.17,4.68,5.24,3.95,3.88,2.15,2.46,1.53,1.77,-0.46,0.05,2.68,1.45,-0.58,-0.59,-0.59,0.81,-0.73,0.98,1.03,1.67,-0.25,-0.14,-1.23,0.44,-0.41,-0.37,-0.51,0.36,-0.08,0.28
"ex3654",0.02,0.89,2.13,2.36,2.31,4.40,5.82,4.69,3.74,4.23,6.05,4.10,1.56,1.09,1.18,-1.47,2.00,1.15,-1.31,0.00,0.10,0.80,0.23,-0.15,0.62,0.07,-0.31,0.15,0.14,-0.12,0.63,0.19,-0.49,0.61,-1.28
"ex3655",-0.66,0.65,-0.27,2.38,1.21,5.76,3.86,3.58,2.81,4.53,5.51,2.39,1.80,2.53,-0.87,0.69,1.44,0.57,-0.72,0.77,0.67,1.01,0.70,0.37,-1.67,-0.26,0.36,-0.31,-2.37,-2.18,-2.24,-0.93,-0.20,0.92,1.35
"ex3656",-0.99,0.57,1.96,2.04,5.64,3.06,5.88,5.09,3.73,3.03,2.63,1.33,-0.85,1.24,0.60,0.47,-0.17,1.74,0.53,1.36,0.69,1.17,0.20,-1.12,0.01,-0.19,-1.06,0.58,0.52,0.35,1.10,0.84,-0.03,-1.29,1.29
"ex3657",-0.13,0.27,1.86,3.60,1.79,0.80,3.39,4.84,3.35,3.70,4.44,2.65,0.98,1.80,0.97,-0.56,0.52,-2.23,1.19,1.24,-2.22,-0.56,1.12,-1.16,-1.45,0.98,-0.63,0.24,0.04,-0.41,0.29,0.77,-0.90,-1.01,0.33
"ex3658",0.47,0.40,1.11,1.87,0.94,3.02,3.66,2.13,4.87,6.38,5.85,4.53,4.57,3.65,1.54,2.27,-0.03,-0.73,-0.61,-2.29,-0.34,0.26,-1.08,0.22,0.94,0.17,1.07,-0.62,0.60,-0.98,-0.73,0.43,1.57,-1.23,-0.55
"ex3659",-0.78,-0.45,1.61,-1.56,3.00,1.61,1.70,2.43,5.26,5.03,6.46,4.84,3.69,2.29,0.87,-0.60,-1.54,-1.50,-0.23,0.28,0.56,0.27,-1.29,-0.49,2.79,-1.42,0.60,0.02,-0.03,0.35,0.56,0.44,1.36,0.77,-1.97
"ex3660",-1.63,-0.77,-0.13,1.64,0.35,0.60,-0.37,0.24,1.02,3.79,4.11,4.00,3.49,3.59,6.00,2.74,1.78,1.50,-0.11,1.85,-2.28,-0.47,0.03,1.11,-0.08,2.87,-0.25,0.60,0.75,-1.06,0.85,2.16,-0.51,0.57,0.26
"ex3661",-1.89,1.21,3.22,2.34,4.01,3.41,4.70,4.01,3.07,0.70,3.00,-0.06,0.06,-0.63,0.85,0.34,-1.17,-0.75,1.09,0.46,0.53,0.96,-0.09,-0.24,0.26,0.48,-0.38,2.33,0.32,-1.04,-1.09,2.38,-1.27,-1.10,-0.06
"ex3662",-0.15,-0.95,1.44,1.91,2.58,4.44,4.09,3.24,3.85,2.65,3.02,1.61,1.82,1.94,2.09,-1.66,-0.06,-0.32,-1.65,0.11,-0.05,-1.54,1.72,-0.30,-0.12,0.35,0.06,1.37,0.95,-0.53,0.63,-0.44,-1.03,0.52,-0.76
"ex3663",2.07,0.97,1.14,1.54,0.67,2.01,1.50,2.50,0.09,2.47,1.71,0.58,2.67,0.68,4.43,2.68,3.02,0.77,1.78,1.32,-0.16,-0.40,1.52,-1.19,-0.35,0.81,-0.59,-0.21,1.43,-0.23,1.09,1.05,0.32,-0.89,-0.39
"ex3664",-1.33,0.17,0.08,-1.10,1.05,1.47,-0.42,1.24,-0.21,1.12,0.43,3.81,3.13,5.25,5.02,3.25,3.58,3.63,1.44,-0.40,0.26,1.35,0.34,-0.66,1.44,0.46,0.56,-0.38,0.28,-0.46,-0.57,-0.14,1.14,-1.76,-0.07
"ex3665",0.45,1.85,2.31,4.25,2.02,3.45,1.62,3.59,4.08,1.30,2.41,0.60,1.99,1.43,3.11,2.31,-0.43,-1.08,0.15,-0.45,1.01,-0.65,-0.45,-1.45,-0.45,-0.05,-0.47,-1.86,0.09,0.32,1.18,0.56,0.30,0.76,1.16
"ex3666",-0.89,0.77,-0.17,-1.25,-0.62,-0.21,1.87,2.21,3.81,5.06,6.22,5.53,2.65,3.11,2.71,2.58,2.18,0.84,-1.99,-0.06,-1.13,-0.34,-0.09,0.52,-1.66,1.61,-1.48,0.27,-0.17,-0.61,0.39,0.21,0.15,-0.54,-0.09
"ex3667",-1.31,-0.98,1.16,1.81,1.43,2.24,2.60,2.72,3.26,1.19,3.78,0.83,0.77,0.68,2.99,2.05,2.03,-0.63,1.86,1.96,-0.84,0.86,-1.03,-0.94,2.04,-0.95,0.97,-0.45,0.39,-1.67,-1.38,0.63,-0.43,-2.05,-1.82
"ex3668",0.61,-0.32,1.96,-0.69,1.61,2.16,5.16,3.31,3.92,4.09,6.12,5.64,2.86,2.13,1.39,-0.56,1.55,0.14,1.94,-0.51,0.22,0.58,-1.92,-0.26,1.08,-0.57,-0.87,0.48,-1.43,1.53,1.21,1.44,1.08,1.91,2.67
"ex3669",-0.04,1.88,-0.61,0.69,-0.49,-0.29,0.58,1.12,1.64,2.05,3.96,4.69,4.40,3.84,4.05,3.94,3.20,1.21,0.48,-0.19,-2.24,0.48,0.03,1.91,-1.12,1.99,0.30,-0.20,-0.31,-0.40,-1.11,-0.88,-1.69,0.43,-0.23
"ex3670",-0.22,2.20,2.06,1.38,0.54,1.13,1.19,-0.90,1.46,0.41,3.21,2.76,3.32,3.20,6.36,3.97,1.29,3.14,1.89,2.45,-0.95,-0.17,-0.20,1.16,-1.02,1.44,-1.74,-0.23,0.48,-0.80,0.64,1.37,1.17,1.34,-0.20
"ex3671",-0.82,0.85,1.10,1.79,0.64,3.10,3.24,4.09,4.23,3.83,1.89,4.45,3.44,2.75,2.53,0.95,-0.26,1.75,-0.65,0.80,1.18,-0.09,1.87,-1.58,0.79,-1.37,0.73,-0.19,0.26,2.17,-0.41,0.83,1.27,-0.06,-1.43
"ex3672",0.02,1.55,0.90,1.76,1.22,3.57,4.42,5.48,5.87,4.32,3.57,0.01,-0.39,3.16,0.94,1.31,0.23,-0.68,-0.93,-0.57,0.28,0.05,-1.10,1.14,-0.37,1.08,0.88,0.77,0.30,-0.06,0.11,0.40,-1.91,0.36,0.02
"ex3673",0.37,0.82,0.07,-0.02,0.49,1.45,1.13,0.53,1.65,4.08,2.89,4.34,5.42,4.33,3.97,3.08,2.36,2.37,1.62,0.15,-0.30,1.57,-0.21,-0.21,-2.70,-1.08,0.14,0.94,1.17,0.26,0.09,-1.11,0.83,0.27,-0.04
"ex3674",0.57,-1.51,-0.11,1.03,1.04,0.32,1.37,1.20,3.10,2.71,4.14,2.02,2.57,4.70,3.01,3.08,1.97,0.24,-1.57,-0.11,-1.66,1.30,1.54,0.59,-0.27,-0.76,0.91,-0.36,-0.41,1.86,-1.30,-0.59,1.40,0.78,-0.41
"ex3675",-1.63,-1.51,0.46,0.86,0.02,3.24,2.29,2.67,4.12,2.84,6.36,3.81,6.15,2.93,1.82,3.26,3.47,0.15,-0.20,1.80,1.59,0.04,1.73,0.93,0.85,0.28,-0.52,1.09,-0.53,-0.32,1.63,2.13,-0.60,1.87,-0.49
"ex3676",-1.54,0.39,1.91,0.62,0.63,-0.94,0.99,-0.47,1.80,2.96,2.34,2.87,3.47,5.87,5.82,3.89,3.74,3.34,0.62,1.54,1.37,0.88,0.63,0.58,0.21,0.42,-0.33,0.39,-0.56,-1.02,0.06,-0.47,-0.73,-0.27,-0.92
"ex3677",-0.14,0.12,1.67,-1.96,-0.15,0.35,2.90,0.73,4.22,4.20,4.20,5.56,3.61,4.93,2.81,1.39,-0.80,1.49,0.63,-0.37,0.58,0.20,0.77,-0.86,-2.23,-1.00,-0.63,1.23,-0.35,-0.24,-1.45,0.61,-0.32,0.31,-0.36
"ex3678",0.74,0.32,2.31,1.00,-0.30,1.26,-0.39,2.05,1.45,3.25,4.97,3.01,2.38,4.90,1.53,2.58,2.76,1.59,0.80,2.11,0.84,-1.12,-0.09,0.03,-0.02,0.55,0.35,-0.08,0.66,-1.24,-0.97,-1.30,0.21,-0.35,-0.45
"ex3679",-0.09,-0.57,1.70,3.14,3.45,4.63,3.88,3.60,4.40,6.07,2.23,2.46,-0.14,0.22,0.72,0.83,-0.43,-0.80,-0.50,-1.80,-0.12,1.14,-1.89,2.21,-1.01,-1.76,-0.01,0.72,1.07,-1.35,0.15,0.56,0.04,-1.12,-0.20
"ex3680",-1.15,0.24,1.30,0.27,-0.35,0.88,3.14,1.53,-0.90,0.92,1.32,3.59,1.19,3.58,4.43,4.00,3.95,2.25,-0.01,0.79,-0.43,0.86,1.66,-0.13,0.92,-0.97,0.06,-0.53,0.59,1.22,-0.14,-1.40,-0.20,0.80,-1.95
"ex3681",-0.64,1.26,2.25,1.63,2.13,4.42,5.37,6.26,4.69,3.48,0.06,2.48,0.38,0.97,0.40,-0.25,-0.27,-0.31,-0.76,-0.05,-0.31,1.13,0.49,0.14,-0.45,-0.14,0.63,-0.78,0.63,-0.03,-1.49,0.32,-0.32,1.72,-1.06
"ex3682",-0.36,0.03,0.19,0.94,0.31,-0.22,3.18,2.92,4.99,5.41,5.18,6.04,3.21,2.84,2.40,0.06,-0.74,0.40,0.92,1.11,-1.56,-0.88,0.83,2.24,-0.62,-0.08,0.15,0.54,0.95,1.37,0.63,-0.62,1.12,-0.44,-0.48
"ex3683",-0.35,1.51,2.36,2.30,2.53,4.82,5.72,2.98,2.54,2.55,2.17,1.15,1.32,-0.59,-0.41,1.14,0.05,-0.81,-0.85,0.30,-1.52,-1.00,-0.15,0.09,-1.55,1.24,-0.63,-0.75,2.26,0.58,-0.96,1.13,0.72,0.91,1.46
"ex3684",0.05,-0.76,0.27,-0.18,-1.08,1.04,2.14,3.90,3.68,3.45,3.90,2.44,4.48,5.19,4.76,3.46,1.73,2.23,1.65,-0.19,-0.52,-0.16,-0.68,-1.74,-0.19,-1.47,0.71,0.46,-1.02,-0.43,-0.65,0.16,0.34,0.28,1.35
"ex3685",0.16,1.44,2.38,3.16,4.31,4.50,4.93,6.08,3.98,-0.70,1.37,2.21,0.12,-0.05,-1.63,-2.39,-0.31,-0.55,-0.51,0.24,-0.48,0.85,0.16,-0.77,-0.81,0.29,0.83,-0.28,0.03,-0.52,-0.87,1.60,-0.02,-1.44,0.78
"ex3686",-0.39,0.62,1.63,0.23,-0.59,1.96,0.30,2.22,1.06,4.85,6.23,3.97,3.64,2.73,3.34,0.94,1.60,-0.61,2.13,-0.19,-1.62,1.15,-1.47,-0.34,0.32,0.87,0.02,-2.09,-1.12,-0.26,1.52,-1.03,1.09,0.18,-1.37
"ex3687",0.77,-0.35,1.19,0.66,2.19,2.31,2.85,1.11,2.79,1.96,1.49,0.97,3.46,0.06,3.21,2.22,1.67,1.30,1.82,-0.45,-1.91,0.60,0.80,1.45,0.92,1.32,-0.38,-0.51,2.69,0.18,-1.18,0.88,-0.65,-1.29,-0.82
"ex3688",-0.99,-1.06,0.33,1.68,2.25,0.95,4.54,1.88,6.20,3.72,2.12,4.79,1.09,1.64,-0.17,0.88,0.17,1.03,0.73,-0.00,0.99,-0.35,-0.17,1.57,1.04,-0.56,-0.20,0.57,-0.21,1.01,-0.60,1.11,-2.21,1.07,0.10
"ex3689",1.45,0.33,1.35,-0.21,2.70,0.72,2.69,1.80,-0.83,0.86,2.52,1.41,1.52,4.81,2.17,4.02,2.82,1.01,-0.75,-0.67,-1.42,-1.38,-0.91,-0.31,-2.19,0.05,-1.15,1.62,0.81,-2.16,-0.11,-0.60,0.02,0.39,-1.52
"ex3690",0.55,0.22,1.02,-1.49,1.96,0.73,1.79,2.51,3.15,4.04,3.34,4.74,4.33,5.55,4.09,2.29,1.60,1.12,0.60,0.10,0.25,0.52,0.74,-0.44,0.19,-0.67,-0.71,-0.47,0.74,-0.60,-0.71,0.20,0.66,-0.86,-0.61
"ex3691",0.90,1.62,-0.38,-1.39,0.69,0.85,1.28,2.97,3.29,5.54,4.61,4.77,6.08,3.59,3.74,1.31,0.42,0.17,2.29,-0.48,-0.89,0.36,-2.14,-1.39,1.01,-1.86,-0.36,-1.82,0.77,0.46,-1.30,-0.37,-0.44,-0.64,-0.09
"ex3692",-1.52,-0.33,-0.41,-1.07,1.07,-0.14,1.67,0.54,0.93,1.29,2.49,3.74,0.85,6.06,4.45,5.32,2.55,3.15,2.60,2.85,0.16,1.70,0.43,-1.49,0.40,1.70,0.49,-0.49,1.45,0.02,-1.10,0.14,0.79,0.68,-0.11
"ex3693",-2.68,-0.67,0.82,0.51,-0.17,2.51,1.88,2.64,2.02,6.00,6.05,5.62,3.43,3.89,0.56,0.68,0.56,-2.74,0.18,-0.04,0.86,-1.07,0.40,0.50,-0.88,-0.77,-0.73,-0.23,-0.63,0.03,-0.78,0.45,-0.51,0.23,0.32
"ex3694",-0.01,0.13,0.66,-1.81,0.55,-1.00,1.00,-0.63,-0.91,0.86,6.42,1.24,5.42,4.72,5.78,4.65,3.02,2.91,2.16,-0.05,-1.20,1.23,0.59,-1.88,-0.82,0.11,-0.36,-0.02,-0.08,2.30,-0.08,1.03,0.85,0.08,-0.43
"ex3695",0.48,0.65,-0.36,1.28,0.76,-0.12,2.60,3.30,4.79,3.43,5.07,2.75,1.76,3.02,0.94,-0.13,-1.19,0.87,-0.71,-0.24,2.00,0.49,-0.22,-0.26,0.31,-0.14,0.59,-0.23,0.96,0.78,-1.12,0.84,-0.24,0.91,0.70
"ex3696",-0.43,1.44,0.88,1.95,3.53,4.59,3.65,4.83,2.17,4.54,0.50,0.54,0.49,-0.11,1.94,1.23,-0.74,0.21,-0.33,-0.62,0.48,-0.52,-0.15,0.87,-0.06,-0.20,0.22,-0.43,0.53,-1.13,0.96,0.41,-0.59,0.62,-1.55
"ex3697",0.12,1.90,0.74,-1.13,-1.07,0.42,1.45,1.80,3.33,6.23,3.95,4.44,2.55,5.13,2.48,2.39,1.46,-1.24,1.90,-0.57,-0.74,-1.18,-0.14,-0.56,-0.58,-2.97,-0.03,-0.66,-0.75,-0.24,-0.92,0.42,1.04,-2.39,1.58
"ex3698",1.08,-0.16,2.87,0.21,-0.03,1.60,2.84,2.04,4.98,6.35,4.77,3.42,3.43,2.51,2.51,0.92,0.24,-1.09,-0.47,1.31,0.26,-0.25,-1.31,-1.37,0.57,0.36,-0.49,-0.30,0.09,0.54,0.77,0.61,-0.26,-1.13,0.24
"ex3699",0.47,-0.27,-0.89,2.18,2.66,4.08,2.06,5.85,2.58,3.82,4.46,3.51,-0.24,1.58,0.58,-0.42,0.05,-0.72,-3.62,1.78,-0.17,-0.32,0.27,0.63,0.66,0.08,0.61,-0.25,-0.72,-0.38,0.24,1.29,-3.27,-0.02,2.47
"ex3700",-0.96,1.92,-0.88,-0.33,-0.45,0.90,1.58,2.21,3.11,6.00,5.77,4.97,2.80,2.62,1.38,1.05,-0.89,-0.07,0.24,1.44,-2.61,-0.81,0.26,-2.22,-1.58,-0.64,2.07,0.29,-0.39,-0.76,0.52,0.49,1.31,-0.12,0.21
"ex3701",-0.22,0.29,1.32,3.12,2.32,2.53,2.82,3.82,2.33,2.04,2.31,2.27,2.74,0.70,1.21,2.10,2.07,1.59,2.63,1.10,0.47,1.19,-0.39,0.71,1.40,-0.36,-1.36,1.53,0.14,-2.30,-0.29,-0.69,-0.79,-0.70,-0.41
"ex3702",-1.67,1.04,0.74,0.08,-0.03,1.25,2.01,3.00,2.64,4.17,4.29,4.76,6.18,2.72,1.44,1.93,0.99,2.05,-0.14,0.21,0.44,1.30,-0.25,0.21,-0.28,0.61,-0.28,0.89,1.16,-0.52,0.47,-0.11,2.58,0.69,-0.80
"ex3703",-0.82,1.23,1.64,2.68,2.43,3.42,6.02,5.08,2.24,3.86,3.41,-0.39,-0.32,0.16,0.78,2.02,0.58,1.70,0.65,-0.01,-0.93,1.43,0.19,-0.19,1.27,1.31,-0.00,1.59,0.45,0.17,-0.83,1.23,0.62,-0.73,1.33
"ex3704",1.07,-1.20,-0.38,0.17,-1.42,-0.20,0.25,1.90,2.58,1.49,5.13,4.76,3.92,4.68,4.42,2.22,4.11,2.50,1.23,0.49,1.45,-0.80,-0.44,-2.41,-0.75,-0.65,0.22,1.68,-1.45,-1.85,-0.23,0.28,-0.92,0.81,-1.26
"ex3705",0.08,-1.22,-0.96,-0.16,-1.04,1.33,2.11,2.72,7.33,5.01,5.69,6.20,2.79,2.08,3.30,0.35,0.04,0.08,-0.44,-0.06,-1.39,-2.22,0.05,-0.92,1.00,-2.05,-1.38,1.17,0.62,-0.31,-0.76,1.17,0.14,1.01,2.13
"ex3706",-0.25,-0.22,-0.24,1.50,2.16,2.30,3.46,3.17,-0.29,2.02,1.08,3.85,1.96,2.00,0.88,2.56,0.35,1.78,1.18,2.05,0.02,0.77,-0.00,-1.37,0.25,-0.83,0.61,0.17,2.58,-0.32,-1.98,0.65,-1.01,-0.27,-0.91
"ex3707",0.65,-0.12,0.06,-0.60,0.56,-0.11,1.18,2.91,3.65,6.39,4.18,4.92,3.00,1.88,0.01,1.25,2.51,0.98,1.64,-1.65,-0.19,-0.60,0.34,-0.63,1.06,-0.27,-2.37,1.59,-0.21,-0.41,-2.09,-0.09,-0.50,-0.82,-1.32
"ex3708",0.82,-0.01,0.85,-0.65,0.79,0.33,3.02,4.19,4.24,5.06,5.04,6.63,2.91,2.84,2.12,1.58,0.45,-0.46,-0.81,-0.24,-0.15,0.13,-0.99,0.21,1.35,-0.19,1.79,-1.14,0.44,0.03,2.43,1.09,0.54,1.01,0.12
"ex3709",1.60,-1.34,0.49,2.25,1.17,1.63,1.93,4.40,3.70,6.74,6.04,3.70,4.10,0.48,2.58,1.69,-0.39,-0.08,0.13,0.62,1.62,0.89,-0.14,-1.46,1.11,1.38,-0.33,-0.08,0.93,-0.61,-0.18,-0.01,-1.14,0.23,1.18
"ex3710",-0.39,1.96,2.95,4.11,4.61,4.39,6.60,1.88,1.65,3.12,3.09,1.17,0.25,0.49,0.94,-0.15,-0.15,-2.46,-1.25,-0.58,1.32,-1.09,0.23,0.29,0.93,0.48,-0.51,-0.23,2.11,-0.70,2.97,0.69,0.09,-0.68,-0.37
"ex3711",1.16,3.82,0.09,2.68,2.00,3.88,3.10,4.23,3.11,3.53,3.22,5.34,3.52,4.12,1.50,0.35,-0.47,-0.02,-1.16,-0.56,2.50,-1.33,-0.14,0.06,-0.02,-1.67,-1.48,-0.60,-0.43,-0.57,-0.15,0.81,0.07,0.81,2.03
"ex3712",-0.12,0.48,3.27,1.61,4.34,4.94,5.14,4.72,3.54,3.99,3.74,3.35,0.27,-0.14,1.57,1.23,0.06,1.92,-0.09,-0.71,-1.12,-0.85,1.76,-3.17,-1.12,2.38,0.02,1.17,0.08,-0.41,0.87,-0.37,-0.91,1.40,0.48
"ex3713",0.77,0.02,1.09,0.17,0.92,1.53,0.71,1.96,1.93,0.91,3.98,3.08,4.31,4.62,3.83,4.07,3.22,2.63,-0.98,1.95,-0.29,-0.52,1.70,-0.14,1.37,-0.82,0.47,-1.55,-0.02,-0.97,-1.46,0.00,-0.59,-0.06,1.20
"ex3714",-0.19,0.52,3.06,2.82,3.78,5.21,4.42,6.14,4.95,1.81,3.66,1.01,-0.22,-0.85,0.00,-0.74,0.87,-0.90,0.34,-0.08,-0.68,0.86,-0.78,0.42,0.33,-2.47,1.55,-1.56,0.07,1.55,-1.07,-1.09,1.14,0.65,-0.21
"ex3715",-0.58,-0.86,-0.18,0.56,-0.73,2.51,2.33,3.58,4.01,4.21,4.54,4.04,1.15,3.61,2.29,-0.12,-1.40,0.76,1.52,-0.13,-0.56,0.68,-2.24,1.56,0.73,-1.12,-0.41,0.76,1.19,0.65,-0.76,0.01,-0.58,0.23,0.99
"ex3716",-0.23,1.06,2.55,3.57,4.23,4.64,4.58,5.45,3.46,2.06,1.20,1.78,1.10,-0.38,0.47,1.89,-0.28,1.07,0.71,-0.38,-0.92,0.96,1.65,2.28,2.71,-0.26,-0.09,1.36,0.36,1.34,0.16,-0.07,-0.24,0.13,-1.17
"ex3717",-0.65,0.69,0.82,-0.25,2.07,1.77,3.46,1.69,3.47,2.21,2.99,1.26,1.70,2.02,3.30,1.32,1.14,0.13,2.34,-0.36,-1.30,-0.77,-0.73,0.74,2.66,-0.63,0.25,2.22,2.91,-0.63,0.19,0.71,-0.13,0.56,0.51
"ex3718",-0.70,0.26,1.22,2.04,3.06,1.35,3.82,3.78,2.68,5.00,3.43,2.83,0.59,1.25,2.01,0.53,-0.56,-0.60,0.33,-0.27,0.02,-0.47,-0.61,-0.84,0.44,-0.75,-0.52,-0.80,1.33,-0.76,-0.42,-2.48,-2.25,0.04,1.31
"ex3719",0.59,1.28,0.82,2.46,2.76,2.36,3.65,2.79,4.28,3.30,3.89,1.46,2.20,3.28,1.62,-0.06,0.54,1.13,3.02,1.25,-0.51,-0.37,0.49,0.59,0.65,-1.14,-0.47,-0.64,-1.17,0.76,-0.11,0.55,0.16,-0.18,0.83
"ex3720",-0.43,-1.88,0.57,-0.64,1.12,-1.04,2.29,1.91,2.25,2.78,4.66,2.11,5.88,5.10,3.48,3.23,2.28,0.33,1.30,-0.67,-0.37,1.07,0.49,0.66,0.57,-0.48,1.39,1.35,0.19,-0.42,-0.48,-1.63,-0.66,-0.02,-0.49
"ex3721",0.51,-0.54,0.70,2.32,1.89,5.36,5.46,4.42,2.00,5.37,3.56,3.11,1.47,0.67,-0.87,2.33,1.23,0.10,-0.55,1.74,-0.30,-1.95,0.82,2.21,-0.78,0.49,0.11,0.10,-0.87,-0.03,0.54,0.29,-0.95,0.60,1.04
"ex3722",0.06,-0.82,0.82,0.73,1.52,3.99,2.84,3.86,1.97,3.80,2.95,0.94,1.72,0.97,4.25,1.89,1.15,2.05,0.96,2.31,-0.65,1.64,2.09,0.40,0.54,0.31,1.26,0.07,-2.98,0.17,0.87,1.55,1.20,-0.18,-0.88
"ex3723",-1.47,-1.16,0.85,0.83,-0.36,-0.29,-1.45,0.93,-1.01,1.48,2.90,2.83,0.79,4.71,5.53,4.23,3.80,3.42,2.61,1.26,0.37,0.57,-0.97,0.10,0.18,0.66,-0.36,0.03,0.51,-0.99,0.18,1.98,-0.13,-0.40,0.88
"ex3724",2.09,1.64,-0.23,2.09,1.39,1.96,4.95,5.22,3.46,3.98,2.51,3.28,1.26,0.84,0.59,-0.12,0.34,-0.04,-0.34,2.25,-1.87,-0.26,-1.41,1.53,0.23,0.31,0.86,0.05,0.02,-0.11,-0.11,-0.22,0.58,0.56,0.15
"ex3725",0.01,0.76,-0.14,-1.14,-0.62,-0.42,2.59,2.44,4.58,5.76,4.06,5.21,2.68,4.24,0.91,2.22,-0.96,0.47,-1.40,-0.18,-1.12,1.24,0.02,0.01,0.76,-0.55,0.79,2.24,0.05,-0.07,0.16,1.14,-1.42,-0.96,0.63
"ex3726",-1.48,0.37,0.23,0.05,-0.03,1.86,0.69,-0.71,0.34,3.32,1.89,2.87,3.02,5.25,3.84,4.00,2.64,2.17,1.95,-0.78,0.41,0.45,1.45,1.49,0.20,0.47,-1.41,0.37,-0.60,-0.99,-1.18,2.25,0.05,0.15,-0.01
"ex3727",-0.59,0.37,-0.34,1.17,0.02,1.03,1.20,0.59,2.32,2.46,2.95,3.41,4.81,4.91,3.58,5.00,0.96,2.31,1.13,-0.75,-0.03,-0.32,-0.05,0.09,-0.01,1.29,0.36,-0.60,1.02,-0.27,-0.39,-0.38,-1.18,0.24,0.49
"ex3728",-0.79,-0.45,2.04,0.45,-1.62,-0.50,1.69,0.42,1.86,3.46,4.15,5.15,3.01,5.24,4.74,3.67,0.40,2.33,0.44,0.02,-0.98,-0.55,-0.33,0.53,-2.17,-0.20,1.27,-0.37,-0.83,0.90,0.61,-0.42,1.11,-0.27,-2.55
"ex3729",-0.90,0.58,0.14,0.43,1.13,4.04,2.50,-0.66,1.87,2.35,2.89,2.47,2.05,3.82,4.02,1.97,2.97,1.89,-0.85,1.53,0.94,0.58,0.21,-0.85,1.83,-1.27,-0.17,0.15,-2.14,0.18,0.27,0.87,1.23,1.34,0.20
"ex3730",0.80,0.09,-0.50,-0.53,2.75,1.05,0.77,0.40,-1.04,1.58,1.73,3.93,3.36,4.61,6.74,4.07,3.92,3.71,2.87,0.86,-0.07,-0.88,-1.96,-0.26,-0.71,-1.20,-1.66,-1.00,0.82,1.38,-0.89,0.44,-1.81,-0.81,1.22
"ex3731",-0.27,1.60,0.62,-0.30,-2.91,0.95,-0.90,0.37,-1.00,1.20,0.84,2.76,4.18,4.01,6.04,5.13,3.47,2.46,2.14,0.90,0.29,0.21,-2.17,-0.45,1.08,0.65,-0.82,-0.61,-0.23,0.50,1.37,-0.40,0.99,0.41,-1.42
"ex3732",2.02,-1.06,0.78,1.72,3.02,3.74,3.29,3.73,5.61,3.97,4.18,1.83,2.48,2.28,1.45,-0.78,-0.67,0.70,-1.00,-0.49,-0.50,-1.29,-1.02,0.35,-0.06,-1.79,0.90,-3.10,-2.07,0.49,-0.78,-1.38,1.11,1.66,0.34
"ex3733",-0.43,1.94,-0.07,2.27,1.79,4.52,4.37,4.67,4.83,3.76,0.92,1.53,0.43,1.06,-0.92,-0.59,1.33,2.35,0.46,-0.63,0.12,-1.20,0.17,-0.21,-0.94,-0.32,-0.15,-0.10,-0.47,1.09,0.32,-0.98,-0.19,-1.84,-0.12
"ex3734",0.44,0.02,0.34,2.14,1.81,2.65,4.81,6.88,3.59,3.40,5.49,3.59,3.41,1.37,0.91,0.93,1.14,-0.60,-0.82,2.18,-1.66,1.40,0.10,1.22,0.55,1.06,1.01,0.35,-0.81,-0.09,-0.63,1.87,0.38,1.24,-0.60
"ex3735",0.17,1.16,-0.21,0.44,-0.36,-1.15,0.77,2.05,2.35,2.77,4.42,3.00,3.79,3.14,4.34,1.39,1.17,-0.25,1.76,1.60,-0.24,-0.48,-0.02,2.38,-1.32,0.32,1.43,-0.91,0.91,2.26,0.62,1.50,1.98,-0.73,-0.06
"ex3736",-0.48,1.52,0.86,1.66,1.84,2.10,3.95,4.27,4.99,2.65,3.66,1.24,2.55,0.86,1.12,1.79,1.86,0.92,3.28,-0.39,0.29,-1.29,-0.35,0.93,0.14,-2.53,-2.03,-2.26,1.34,-1.56,-0.40,-0.34,2.09,-2.48,-0.60
"ex3737",0.38,-1.67,0.20,-2.08,2.26,1.13,1.97,0.20,2.67,2.58,3.71,5.53,3.06,4.03,3.95,3.15,3.43,2.24,1.14,2.27,1.77,-0.21,-0.35,1.98,1.17,0.19,0.28,1.07,0.39,-1.08,0.70,-1.00,0.23,1.02,-0.60
"ex3738",0.88,-0.19,2.31,3.72,2.91,4.34,4.35,4.50,2.17,2.84,2.57,2.07,1.42,1.69,2.00,0.30,2.27,-0.88,0.29,-0.09,-0.44,-3.25,-1.42,0.57,-1.14,-1.60,-0.39,0.31,0.75,-1.04,1.64,-0.40,0.43,-0.40,-0.25
"ex3739",-1.88,0.21,1.18,-0.87,1.20,0.60,2.97,0.26,1.34,2.19,1.37,3.81,5.70,4.03,6.28,5.03,2.83,4.50,0.44,0.69,0.94,-0.63,2.01,-1.41,0.60,-1.14,0.04,0.42,-1.32,1.53,0.29,0.16,2.15,-0.74,-0.77
"ex3740",-0.34,0.45,0.31,-0.39,-0.89,-0.41,2.94,2.10,4.91,5.30,5.18,5.09,3.23,3.09,3.58,1.57,1.46,-0.39,-0.11,0.39,0.91,-0.56,-0.58,0.85,1.46,-1.35,0.92,1.34,-0.20,0.36,1.22,-0.31,0.16,-0.24,0.26
"ex3741",1.34,1.17,1.19,0.28,1.48,2.77,3.70,3.73,4.73,4.25,5.70,2.77,2.06,1.82,0.05,0.51,-0.24,-0.87,0.72,2.54,-0.41,0.46,-0.82,-1.00,0.40,-0.27,0.21,1.24,0.97,1.37,-0.03,-0.07,-0.28,1.13,0.84
"ex3742",-0.28,1.28,1.26,0.41,1.29,-0.47,2.75,1.85,3.95,4.46,5.96,5.37,4.01,3.31,1.30,1.96,0.32,0.87,-0.46,-0.09,1.08,-0.56,0.23,0.40,0.56,-1.42,-0.54,0.30,-0.44,-1.72,-0.88,0.59,-0.03,0.04,1.14
"ex3743",-1.18,-0.71,-0.74,2.46,1.94,2.67,2.56,5.47,4.66,3.92,5.33,5.23,2.68,0.60,1.38,1.10,1.31,-0.52,-0.91,-0.56,-0.15,0.98,1.21,0.27,-0.32,-1.64,0.13,-0.41,1.04,1.33,0.56,-1.00,-0.22,0.78,-0.02
"ex3744",-0.37,0.67,-0.05,0.95,1.46,2.51,0.49,1.17,3.48,3.26,6.20,4.14,4.09,2.98,3.42,1.99,2.35,2.01,-1.71,-0.01,-0.63,-0.31,0.07,0.20,-0.35,-0.64,-0.34,-0.90,0.51,1.06,1.74,0.77,-1.50,-0.81,-1.10
"ex3745",2.66,3.16,2.98,1.30,2.68,2.93,5.00,5.12,4.48,3.24,4.16,4.87,2.55,1.90,0.54,-0.08,-0.04,-0.61,0.21,-0.09,0.10,0.42,0.48,0.58,-0.95,0.63,1.01,0.45,-0.57,-0.20,0.36,-0.66,1.42,1.05,0.35
"ex3746",0.48,2.00,-0.20,0.56,-0.33,1.77,1.47,4.17,5.18,4.11,5.36,5.49,3.55,3.12,1.44,1.85,0.11,-1.62,-1.63,0.88,0.73,-0.37,-0.32,1.68,0.77,0.03,-0.67,-1.27,-0.48,1.47,-0.62,-0.02,0.30,0.21,-1.18
"ex3747",-0.65,-0.61,-0.50,-0.13,0.42,-1.09,0.42,0.96,1.15,1.95,2.81,3.74,5.60,2.58,4.98,7.11,3.45,2.36,1.78,0.74,-0.25,-0.96,1.95,-1.52,0.70,-0.23,-0.16,0.86,-0.51,2.52,0.06,-1.29,1.35,-0.69,-0.48
"ex3748",0.28,1.03,1.82,4.53,3.42,3.76,6.36,5.79,5.12,4.38,2.43,3.43,-0.02,-0.96,-0.94,-0.91,1.98,-0.09,-1.25,1.06,1.16,0.88,-1.48,0.34,0.61,0.58,0.38,-0.53,-0.09,1.04,-2.14,0.52,-1.89,0.52,-0.73
"ex3749",1.18,1.29,2.47,1.78,3.91,3.57,2.08,4.86,4.60,4.00,3.51,6.20,1.55,-0.09,1.39,0.79,-0.87,2.11,1.40,-0.19,-2.27,1.09,0.58,1.15,-0.89,0.61,0.60,-0.59,-2.74,0.26,-0.29,-1.14,-0.31,0.68,-0.75
"ex3750",-1.52,2.02,1.14,0.96,3.29,3.13,3.43,2.78,2.27,0.59,0.55,2.39,2.22,2.68,2.76,2.52,2.90,2.50,-0.69,-0.60,0.76,0.00,-1.50,-0.47,0.64,-0.99,0.34,0.04,0.72,-0.49,0.90,0.04,0.35,1.53,-0.18
"ex3751",1.84,0.34,-0.23,1.40,-0.01,-1.02,1.42,1.39,1.32,1.29,3.65,2.64,4.31,5.81,5.30,4.43,4.68,1.13,1.91,-1.23,-0.10,-1.26,-0.41,-0.24,0.48,-0.16,-0.21,0.31,-0.66,-2.69,1.25,-0.71,-0.80,-0.88,0.15
"ex3752",0.12,1.18,2.32,2.62,3.29,4.30,3.04,3.20,3.33,2.34,4.39,0.52,0.60,-0.21,1.75,0.83,-1.03,-1.43,1.78,-1.06,-0.91,0.62,-0.78,1.40,1.95,1.16,0.02,0.46,-1.58,-0.02,1.09,0.60,-1.34,-0.30,-1.29
"ex3753",0.33,0.53,2.33,1.18,2.61,2.21,3.00,2.76,0.91,0.10,2.90,-0.14,4.38,3.68,3.33,2.17,2.55,1.72,1.20,1.72,0.86,-0.03,0.22,-0.47,0.15,0.58,-0.26,0.67,0.24,-1.12,-0.71,-0.92,-1.70,0.68,1.10
"ex3754",2.80,-0.01,-0.52,0.29,-0.31,-0.12,0.73,1.95,1.55,3.98,3.52,2.92,3.43,4.57,2.94,3.07,3.08,1.92,1.21,-0.41,-0.79,0.62,0.38,1.54,-1.30,-1.64,0.53,-0.61,-0.54,-0.21,0.88,-1.13,-0.73,-0.89,1.47
"ex3755",1.07,-0.41,-0.10,1.79,2.71,3.28,3.93,3.31,2.93,3.97,4.23,4.17,2.04,-0.37,0.77,1.01,0.59,-1.33,0.25,1.72,1.74,-0.80,-0.19,-1.59,-1.61,0.23,0.24,-0.48,-1.27,-0.09,-2.50,1.30,-1.04,-0.25,1.53
"ex3756",0.46,2.83,1.19,1.83,1.77,5.16,2.60,3.41,2.37,1.65,0.67,1.90,1.78,1.11,2.12,0.26,0.87,2.46,0.85,-0.14,-0.55,-2.09,0.32,1.03,-1.02,-0.33,0.32,0.58,-0.26,-0.36,0.37,1.50,2.00,1.87,0.79
"ex3757",-0.25,1.06,-0.67,2.11,2.42,2.50,3.04,3.33,1.35,0.47,1.60,2.70,2.70,2.40,3.00,1.33,1.48,1.64,0.22,1.55,0.15,-0.10,1.28,-0.80,-0.72,-0.62,1.16,-1.27,-0.65,-0.26,-1.60,1.81,-0.53,-0.69,0.48
"ex3758",-1.75,0.68,1.88,-0.05,1.07,2.26,1.69,3.95,4.22,3.56,4.01,4.74,2.79,2.34,1.61,2.51,-0.71,-0.30,-0.39,-0.27,2.29,0.78,-0.14,-0.10,-0.13,-0.19,0.15,0.69,-1.12,-0.89,0.17,-1.14,-0.91,-0.99,0.22
"ex3759",0.35,-1.06,-1.48,2.05,2.20,5.11,5.14,3.77,3.67,3.69,2.15,3.77,1.38,1.11,2.20,-0.78,0.71,0.06,0.19,-0.67,0.99,0.76,-2.10,1.33,1.09,0.11,1.33,-0.28,0.99,0.32,-0.28,1.19,0.38,1.25,-2.64
"ex3760",0.27,0.40,0.11,0.07,1.19,0.87,-0.60,1.80,0.92,1.39,4.35,3.47,4.14,2.90,5.67,5.75,4.76,3.11,2.92,1.01,1.41,-0.65,-0.54,-0.51,-0.22,-1.62,0.06,0.81,2.53,0.69,1.05,1.04,0.04,-0.24,-0.91
"ex3761",-0.12,-0.69,0.20,1.94,0.13,0.70,4.04,3.53,4.08,6.07,5.55,5.21,0.48,2.72,1.96,1.68,-0.46,0.21,-0.47,-0.60,0.02,-0.18,0.30,-0.93,-0.64,-1.01,-1.88,-0.46,0.76,0.01,-1.81,0.04,0.28,1.06,0.42
"ex3762",1.02,0.59,-0.85,-0.10,0.61,-2.22,0.00,-0.01,0.30,1.06,2.65,4.02,4.82,3.68,5.00,3.40,3.59,-0.09,1.43,0.70,0.28,-1.27,-1.13,-2.47,-0.03,0.65,-1.03,-0.49,-1.39,-0.59,0.67,0.77,-0.38,1.34,-0.78
"ex3763",-1.24,0.89,1.13,2.93,4.12,3.07,3.38,3.49,3.31,2.79,3.87,1.78,2.34,1.70,1.63,0.79,3.52,1.89,0.80,1.48,0.32,0.85,-0.68,-0.45,-0.84,-0.91,-1.09,-0.51,-1.66,-0.13,1.37,-0.16,0.61,1.25,-0.99
"ex3764",-1.79,1.72,0.60,-0.11,-0.28,-0.52,2.77,1.83,2.47,3.01,4.62,5.77,4.11,5.00,3.40,2.09,0.34,2.56,1.08,1.44,-0.33,0.71,0.15,0.38,2.26,2.38,0.18,-0.75,1.78,0.53,-0.47,-0.04,0.32,1.01,-1.96
"ex3765",-1.14,1.13,0.55,1.37,-0.87,1.07,0.39,-0.09,0.83,1.25,3.49,2.26,4.76,3.99,3.42,5.76,2.41,2.55,0.81,-0.61,-0.05,0.70,-1.71,-0.48,0.73,-0.29,0.14,-0.36,0.09,-0.59,0.59,-0.47,0.12,-0.21,0.31
"ex3766",-1.00,3.34,1.96,1.56,2.10,2.50,4.16,2.60,3.89,2.38,5.28,4.49,1.03,1.19,0.75,-0.34,-0.87,-0.60,-0.36,1.10,-0.92,1.07,0.56,-0.97,2.53,0.49,-0.60,-0.64,0.14,-1.45,-0.36,0.93,0.56,0.51,-0.05
"ex3767",-0.99,0.64,2.45,2.82,0.10,3.14,2.54,0.68,1.17,3.33,2.88,2.24,2.97,2.96,3.08,1.64,1.55,0.45,-1.65,0.92,-0.13,-2.15,0.24,-1.10,-0.68,0.30,1.36,0.02,1.36,0.30,0.85,-0.53,0.00,1.02,0.39
"ex3768",0.69,-0.18,0.34,2.63,-0.55,1.08,-0.71,2.44,1.63,2.91,2.21,6.07,3.81,6.20,5.37,4.68,3.73,3.51,1.78,0.44,0.11,0.14,-1.22,0.52,-0.80,-0.06,2.21,-0.44,-2.67,1.50,-0.75,-0.52,-0.48,0.41,1.26
"ex3769",1.12,-1.37,1.76,3.38,1.47,1.53,5.16,1.52,4.53,4.82,5.08,0.90,2.49,1.72,1.55,0.26,0.29,0.57,-1.13,-0.92,1.26,0.07,0.93,-0.89,2.38,-0.93,-2.37,-1.09,0.03,-0.64,-2.31,-0.39,0.75,2.20,-0.74
"ex3770",0.91,-0.33,0.43,1.40,3.80,5.00,5.49,6.06,4.35,3.76,3.67,3.25,3.37,2.54,2.91,1.20,-0.04,-0.66,0.60,-1.00,-0.28,1.55,0.13,2.43,1.04,-1.02,0.14,1.26,0.13,0.44,0.67,-0.09,-0.47,-2.50,1.16
"ex3771",0.80,0.46,-0.10,0.64,0.03,-0.30,2.82,4.07,2.57,5.98,4.44,4.37,3.12,4.14,2.92,1.20,1.37,0.23,0.92,0.16,-1.95,1.06,1.12,0.36,-0.56,-0.90,0.53,-0.27,-0.83,0.10,0.28,0.42,-0.93,-0.22,0.17
"ex3772",0.39,0.89,0.57,1.04,0.58,1.02,1.43,3.40,3.40,3.26,5.55,4.32,4.35,4.11,1.97,1.47,0.02,-0.42,0.88,1.25,1.47,-0.28,1.96,0.67,0.02,-2.05,0.92,-0.33,-0.22,1.35,-1.36,-0.68,0.49,-0.12,-0.78
"ex3773",-0.80,-1.40,-1.17,-1.24,0.44,-0.85,2.79,2.49,5.43,5.03,5.99,4.08,5.41,3.47,1.14,1.30,-1.32,-0.42,-1.69,-0.17,0.74,0.11,1.61,0.96,-0.67,1.81,0.76,0.10,-0.61,0.57,-1.14,-1.94,-1.79,0.98,2.53
"ex3774",0.71,-1.44,0.93,-0.45,-0.81,0.90,1.16,1.37,2.50,3.72,3.74,4.51,4.11,4.28,3.71,0.81,-0.23,0.91,2.25,1.46,0.08,1.67,-0.39,-2.16,-1.89,-0.63,-0.05,-0.08,0.42,1.21,0.28,-0.32,-0.45,0.11,0.68
"ex3775",-1.50,1.20,0.73,-2.38,-0.65,2.40,0.83,1.47,2.03,4.79,4.36,3.37,3.53,2.18,3.01,0.35,3.04,-1.26,0.21,0.08,0.43,-0.04,-0.72,0.28,0.49,-0.20,0.92,-0.41,-0.56,-0.42,-0.70,-0.86,-1.61,-0.05,0.97
"ex3776",0.55,-1.35,-0.56,0.55,-0.20,0.00,1.76,-0.19,-0.67,0.92,2.66,2.32,3.11,4.07,5.19,5.12,3.94,4.14,3.05,1.11,0.29,0.60,0.07,0.14,-0.26,-0.39,1.97,0.24,-1.38,0.89,0.75,0.60,1.64,-1.87,-0.66
"ex3777",0.79,0.44,-1.21,-0.35,-1.86,0.52,0.48,0.41,4.25,3.67,2.13,3.12,3.51,3.70,3.56,2.68,1.85,3.08,2.07,0.94,0.57,-0.47,0.66,0.67,1.88,-0.23,-1.30,-0.17,2.13,0.32,0.38,-0.64,-0.89,-0.10,-0.62
"ex3778",-2.35,0.91,1.31,0.49,1.19,0.61,-0.60,1.45,2.21,2.04,3.07,2.69,3.57,3.71,3.95,3.49,2.39,2.48,4.09,0.10,-0.02,-0.77,-1.06,-0.74,0.24,-0.37,-0.34,-0.82,-1.45,-0.65,2.15,0.53,1.97,-0.73,-0.54
"ex3779",-0.93,0.26,1.87,-0.81,1.63,1.79,2.46,1.95,3.93,3.39,5.79,5.33,3.30,3.54,2.40,0.92,0.70,0.24,1.28,-1.80,-0.59,0.79,-0.84,-0.58,1.36,-1.26,-0.19,0.50,-1.14,1.02,1.60,-1.84,0.06,-1.02,-0.75
"ex3780",2.55,-0.16,-0.11,-0.98,0.40,1.36,0.13,1.80,1.44,3.47,6.12,4.28,4.69,2.38,3.54,2.19,0.28,-0.54,1.24,-0.59,-0.60,0.67,-0.05,-0.37,-0.02,-0.25,-0.86,-0.81,-0.01,0.08,-0.02,0.30,-0.29,-0.18,-1.17
"ex3781",-0.50,0.85,3.03,1.92,2.30,0.97,4.00,3.62,2.40,4.05,1.89,2.44,1.62,1.89,2.58,4.33,1.80,1.40,0.39,1.01,1.50,-1.28,1.29,1.33,0.40,-0.29,-1.65,0.34,-0.25,0.49,-0.01,-0.21,-0.97,0.18,-0.67
"ex3782",0.49,0.48,-0.02,-0.05,-2.32,0.82,2.79,2.76,3.25,4.31,1.90,4.20,3.37,4.12,5.32,1.62,1.32,0.85,-0.24,2.89,0.64,0.81,-0.43,-1.30,0.55,2.08,-0.31,-0.51,0.18,-1.75,-0.68,-1.57,0.28,-0.79,0.10
"ex3783",-0.30,-0.82,0.23,-1.45,1.68,-0.13,0.13,1.51,2.69,1.83,4.29,2.73,4.00,3.67,4.17,3.30,2.59,2.24,1.31,-0.27,-0.35,-0.39,0.29,-0.37,0.06,-0.80,0.05,0.70,-0.60,0.33,-0.49,0.78,-1.39,0.67,-0.33
"ex3784",0.47,-0.63,-0.70,1.10,-0.26,1.31,1.84,1.01,-0.05,1.06,2.24,4.15,4.02,5.64,5.82,6.58,1.16,0.87,2.33,2.02,-0.88,-0.34,1.28,0.99,-0.00,-0.38,-1.50,-0.28,0.62,0.47,0.81,-0.62,-0.28,1.25,0.75
"ex3785",0.26,-0.78,1.38,-0.01,1.55,0.78,2.65,3.54,3.31,5.22,5.55,5.15,3.57,1.87,1.43,0.02,0.98,0.38,0.71,-0.68,-0.78,1.00,-0.17,0.68,1.36,2.24,0.15,1.60,1.17,-0.46,1.48,-0.42,-2.47,-1.28,2.06
"ex3786",-2.37,-0.37,0.95,2.27,1.41,2.06,2.79,5.16,5.24,6.42,5.20,1.79,3.14,3.20,2.55,1.11,0.91,-0.84,-0.74,-0.46,-0.40,-0.20,0.37,0.13,0.31,1.37,0.07,1.41,0.06,-0.83,-1.16,0.05,0.42,1.02,-0.36
"ex3787",-1.62,0.78,0.80,3.20,3.84,4.01,4.19,3.95,3.39,4.50,3.05,1.11,0.89,1.84,-1.58,-0.66,-1.09,-1.98,-0.28,0.50,-2.36,-0.01,0.43,-2.34,-0.97,1.63,1.61,0.91,1.18,1.80,-0.58,0.03,-0.52,0.87,0.58
"ex3788",-1.93,-0.83,-0.09,-0.31,-1.11,0.71,0.75,1.03,3.39,3.63,5.43,3.24,3.40,4.19,2.20,2.44,0.11,1.06,0.10,-0.12,-0.77,-0.86,-0.90,-0.93,-0.77,0.20,-2.02,-0.56,-0.10,0.24,0.19,-0.02,-0.16,1.28,-2.51
"ex3789",0.19,0.32,0.96,2.08,1.88,2.34,3.60,1.78,1.98,0.16,2.24,1.99,1.61,3.85,5.38,2.58,4.02,3.92,2.09,-0.62,1.78,-0.78,0.54,-0.88,-0.15,0.07,-0.28,-1.13,-0.36,0.43,0.16,-0.45,0.99,-0.86,-0.41
"ex3790",-0.58,-0.69,1.77,2.56,1.23,4.36,7.83,3.49,3.55,5.77,2.90,1.81,0.52,0.30,-1.95,-0.90,0.21,-0.42,1.79,0.35,2.01,0.24,-1.02,2.45,0.48,-1.03,0.44,-0.88,1.32,-0.14,0.48,0.36,0.41,0.56,-0.06
"ex3791",0.36,-0.27,3.04,2.83,2.28,0.55,2.89,1.22,4.31,1.46,1.80,2.00,1.49,2.26,4.23,0.73,2.75,1.08,-0.09,-0.31,1.33,-0.63,1.26,1.22,0.23,0.64,-0.26,-1.16,0.48,1.02,-1.14,0.73,1.11,-1.34,0.22
"ex3792",-0.28,-1.30,0.86,-0.62,1.91,1.96,1.14,1.98,3.57,4.90,6.57,5.27,3.83,1.89,1.56,2.47,0.25,0.58,-1.12,-0.29,0.95,0.19,-1.36,-2.94,0.12,0.49,-0.43,-2.12,1.63,-0.46,-1.43,0.19,-1.28,-1.11,-0.09
"ex3793",-0.74,-1.69,0.92,-0.76,-0.81,2.40,1.11,-0.49,2.42,3.92,4.19,4.83,3.19,4.10,6.05,3.19,3.37,2.81,1.84,-1.48,-1.04,0.33,-0.19,0.25,-1.81,0.10,-1.01,1.40,-0.29,0.20,-0.41,-0.99,1.21,-0.77,-1.51
"ex3794",1.33,-0.37,0.51,-0.33,-0.27,0.08,0.12,0.89,0.38,-0.15,2.36,2.55,1.75,3.68,4.79,5.16,3.98,1.60,3.25,0.21,1.24,0.03,-0.57,-0.55,-0.42,1.28,-0.00,-0.79,-0.59,-0.96,-0.42,-0.16,-0.77,0.26,-0.11
"ex3795",0.52,0.51,-0.48,0.71,0.36,1.79,0.75,4.32,3.15,4.95,4.85,4.17,2.99,2.01,3.18,2.40,-0.82,0.52,-0.02,-0.11,-0.41,-0.23,-0.90,-1.27,0.35,-0.76,-0.24,1.21,-1.95,2.37,-0.07,0.14,0.10,0.18,-1.17
"ex3796",-0.78,3.98,1.62,3.71,2.13,3.12,5.03,4.24,4.56,5.73,4.82,3.18,0.64,1.23,1.62,0.85,0.38,-0.50,1.08,1.49,-1.46,0.18,0.51,-0.20,-0.07,-0.00,-1.14,0.42,-1.61,0.36,1.20,-0.62,-1.63,0.00,0.34
"ex3797",0.42,1.24,1.00,2.09,2.84,1.38,4.65,2.20,2.23,2.90,2.24,1.44,0.45,1.57,3.39,0.83,1.61,2.09,0.68,0.59,-0.36,-0.89,0.39,0.94,0.20,0.76,-0.49,-2.11,-1.37,0.33,0.15,-1.35,-0.09,0.73,0.58
"ex3798",-0.29,-1.88,0.60,-0.33,-0.83,0.62,2.35,1.30,2.67,4.10,5.24,4.78,4.36,3.72,3.64,3.30,1.09,0.62,1.01,0.37,1.54,-1.33,0.82,0.80,-1.20,0.23,0.14,-1.56,0.82,0.02,1.00,-0.27,-1.52,0.10,0.55
"ex3799",1.12,-0.57,-1.36,2.70,1.67,5.38,5.27,4.26,3.21,2.60,3.73,3.35,0.59,1.84,0.45,0.02,-0.81,-0.25,1.83,-1.31,-0.92,-0.25,0.70,-0.73,-0.71,-0.63,-0.40,-0.53,0.95,0.97,-0.56,-0.36,-0.90,-0.13,-0.48
"ex3800",-1.62,-0.83,0.49,-1.38,-0.54,-0.00,-1.10,-0.86,1.74,0.10,1.95,1.90,4.51,3.78,7.03,3.97,3.43,4.33,2.65,1.51,0.24,1.73,-0.14,-2.48,-1.46,-1.65,-0.36,-0.58,-0.74,-1.88,1.42,0.82,-1.65,-1.13,1.00
"ex3801",-1.51,0.04,0.75,0.87,2.33,2.06,0.97,0.70,1.00,-1.04,2.00,2.55,3.26,7.32,5.33,3.82,3.28,3.76,0.12,0.80,0.70,0.59,0.75,-0.89,-1.60,-0.84,-1.02,-1.32,-0.89,-1.20,1.08,0.91,2.08,0.36,0.60
"ex3802",-0.52,1.30,1.42,1.43,2.61,6.21,5.13,4.02,3.89,4.11,3.12,1.23,1.61,2.92,-0.41,-0.39,0.03,-0.12,-1.12,0.19,0.16,1.91,0.81,-0.56,0.38,1.16,-0.76,0.72,-0.83,-0.49,-0.54,-0.07,2.55,0.70,-0.05
"ex3803",1.22,-0.95,-1.29,-0.84,-0.11,0.61,0.01,2.15,2.52,3.94,4.93,4.78,2.91,4.76,4.20,1.50,1.70,2.56,2.04,1.05,1.25,-0.18,-0.92,-0.44,-0.20,1.52,-0.16,0.03,0.31,0.07,1.18,-1.14,0.71,-1.10,-2.45
"ex3804",0.08,-0.03,2.51,4.53,4.92,4.80,6.32,4.61,1.67,2.17,3.53,1.66,0.87,3.26,2.67,1.99,-1.75,0.66,-1.02,0.18,0.37,-0.73,-1.19,0.84,0.06,0.25,0.98,1.22,0.06,0.53,-0.09,1.00,1.66,-0.36,-0.63
"ex3805",0.60,-0.13,1.48,-0.56,0.06,1.29,4.09,4.41,4.75,4.46,4.98,3.77,2.51,3.61,2.30,0.74,-0.75,-0.97,-0.66,-0.28,-1.19,0.80,0.09,-0.09,0.09,-2.44,0.94,0.80,-2.35,-1.66,-0.77,0.09,1.57,1.09,-0.42
"ex3806",-0.41,1.03,0.73,0.41,1.68,2.73,2.27,3.41,4.01,3.42,4.28,4.78,2.35,2.96,3.05,0.56,0.52,0.73,0.62,0.74,0.86,0.02,0.61,-1.52,0.39,0.32,0.63,-0.42,1.04,-1.04,-1.07,-1.33,1.38,0.55,1.13
"ex3807",0.24,0.79,0.38,1.88,1.71,2.93,4.30,6.17,3.88,6.11,4.00,4.20,4.03,0.93,-0.15,1.36,-0.28,-2.31,0.06,-1.69,0.12,-0.22,-0.35,1.35,-0.51,0.10,0.67,0.39,0.04,1.61,1.31,-0.61,-0.47,-0.62,1.17
"ex3808",-0.29,0.59,-0.85,-1.22,-1.52,0.39,0.94,1.47,-0.05,0.47,2.75,2.38,3.54,3.80,4.51,3.11,4.72,1.70,2.51,2.77,-1.63,0.28,0.96,-0.49,-1.27,0.32,-0.80,-0.05,0.19,0.22,-1.15,0.17,0.54,0.71,1.39
"ex3809",-2.07,1.00,-1.29,1.15,0.48,1.23,-0.27,1.36,3.09,3.05,5.87,4.90,3.12,4.70,3.71,3.28,3.14,2.23,1.05,1.19,0.81,0.40,-2.10,1.33,-0.88,0.25,-0.48,0.55,-0.08,-0.99,1.90,1.24,1.59,0.46,0.41
"ex3810",-0.59,-0.72,-0.32,-2.40,-0.89,1.34,1.42,2.15,2.02,4.52,5.18,6.09,5.36,3.82,2.07,2.76,1.20,1.36,0.54,-0.12,-0.53,0.75,-0.25,1.11,1.66,1.40,-0.99,0.68,0.45,-0.52,-0.96,-1.04,0.93,-1.52,0.91
"ex3811",1.32,0.42,-1.27,2.81,2.98,3.80,3.06,2.25,3.29,1.64,1.33,1.03,-0.27,1.95,2.66,0.42,1.60,1.27,1.77,0.44,0.83,1.94,0.16,1.79,-1.26,0.22,-0.89,0.88,-0.75,0.46,-0.36,0.47,-2.99,0.51,-0.12
"ex3812",-0.15,1.47,2.45,3.93,4.29,5.20,5.19,4.71,4.84,2.56,1.67,-0.67,0.13,0.61,-0.22,-1.37,-0.03,-0.46,0.77,1.02,-0.68,-1.96,-1.57,0.05,-0.98,0.94,1.98,-2.14,0.29,-0.46,1.09,0.27,-0.38,-1.22,0.42
"ex3813",-0.20,0.73,1.00,2.20,2.66,3.44,2.63,4.84,3.56,2.05,1.32,1.77,0.45,4.19,1.49,2.22,1.59,1.70,1.43,-0.05,0.63,-0.49,0.39,-0.69,-0.59,0.26,-0.13,-0.17,-1.48,1.28,0.77,-2.45,0.46,0.12,0.36
"ex3814",2.25,-1.25,0.57,2.56,0.55,2.43,1.18,2.66,3.20,4.72,3.12,3.01,3.06,1.86,1.45,-0.43,0.17,2.35,0.58,-0.69,-0.63,0.16,1.62,1.33,-0.12,-1.51,-0.22,1.67,-0.82,0.76,0.01,-2.68,0.87,0.58,-1.26
"ex3815",1.03,1.11,0.90,0.41,1.50,-0.71,0.43,-0.87,-0.70,1.99,1.95,2.67,3.03,4.99,7.35,4.03,2.90,3.38,2.57,1.57,1.22,-0.09,-0.29,1.58,-1.12,0.92,-0.00,-1.65,-1.57,-1.89,0.22,0.55,-1.68,-0.03,-1.27
"ex3816",0.28,-0.57,-1.41,0.18,-0.09,0.13,0.86,2.06,-2.22,3.33,5.96,3.12,5.89,3.43,4.84,3.17,2.03,1.92,2.09,1.38,-0.66,-1.12,0.27,1.16,-0.97,-1.20,-0.08,-0.19,-0.05,-0.59,2.00,-1.64,-1.88,-0.23,-0.81
"ex3817",-0.02,-0.30,0.73,-0.31,1.29,-0.12,-1.37,0.29,-0.50,1.43,1.84,4.21,4.84,4.38,5.76,6.36,2.71,1.57,2.40,0.71,-0.00,-0.09,-0.82,0.42,-1.02,1.11,1.30,0.01,1.38,-0.16,0.40,-0.08,1.48,-1.03,-1.45
"ex3818",-0.17,0.17,0.97,-1.36,1.20,1.74,-0.68,0.69,0.74,1.78,4.65,2.78,2.66,4.39,5.14,5.15,2.91,0.98,1.83,1.83,0.07,-0.28,1.03,1.12,-1.01,0.23,-0.66,1.04,0.17,-0.53,0.32,-0.03,-1.64,0.78,-0.37
"ex3819",0.08,-0.40,0.86,0.23,1.51,-3.24,-1.54,-0.99,-0.04,0.01,3.32,2.34,2.93,4.82,8.56,3.82,4.02,3.96,4.81,0.05,0.43,1.66,0.72,0.76,0.78,-0.88,-0.57,-0.26,1.32,-1.83,-0.62,-0.92,0.80,1.55,-1.80
"ex3820",1.31,1.87,2.88,2.59,3.62,2.67,3.18,6.14,2.67,3.89,1.56,-0.69,0.45,-0.12,0.60,2.31,2.35,0.62,0.08,-0.14,0.49,-0.53,0.33,-0.54,0.41,0.31,1.14,0.25,0.21,0.09,-1.18,-0.09,1.88,1.18,-1.29
"ex3821",1.27,-0.03,1.30,1.46,2.02,2.09,2.19,0.54,1.72,0.78,2.46,1.31,2.58,2.82,3.13,2.20,0.56,1.19,2.09,0.84,-0.78,0.11,0.83,0.91,-0.61,-0.13,-0.86,-0.15,0.53,0.40,1.79,-0.44,0.20,-0.28,0.22
"ex3822",0.44,-0.12,1.90,1.25,3.38,3.86,3.55,5.97,4.09,4.66,4.15,2.38,1.71,0.66,0.44,-0.80,-1.31,0.15,-0.55,-1.05,0.00,-0.04,1.47,1.30,-0.97,-0.72,-0.56,-0.43,-0.05,-0.51,-0.40,1.29,0.96,0.21,-1.71
"ex3823",-0.99,0.22,-0.82,0.24,-0.04,0.09,1.79,-1.29,-0.25,2.65,2.96,2.39,4.88,5.12,4.14,3.04,2.28,3.11,0.76,0.57,0.18,-0.77,2.42,1.04,0.15,1.11,2.15,1.05,-0.63,-0.16,-0.16,-0.30,0.38,0.14,-0.49
"ex3824",-0.16,-1.51,1.35,0.83,1.28,3.54,4.28,3.24,3.40,6.29,4.85,2.34,2.52,1.58,-0.44,-0.30,-1.12,-0.40,1.44,-0.76,0.72,0.31,0.32,-0.99,-0.55,0.54,-0.80,-0.23,1.57,1.26,-0.60,1.19,-0.01,1.74,0.60
"ex3825",-0.28,0.27,0.14,0.63,-0.16,-1.57,2.37,-1.58,-0.22,-0.92,2.44,3.74,4.63,4.44,4.80,4.05,6.17,3.21,0.89,0.77,0.32,0.50,1.18,1.00,-0.96,0.33,0.48,0.59,0.57,-0.96,-0.25,-1.15,0.24,-0.30,0.42
"ex3826",1.05,0.38,-0.37,1.62,-0.51,2.52,0.05,2.14,1.00,2.76,4.30,3.19,5.44,2.74,4.57,3.15,2.74,1.97,0.54,-0.11,-0.87,0.84,-0.36,0.32,0.43,1.76,1.77,-0.70,-0.67,1.75,0.97,-2.23,0.04,0.43,-0.04
"ex3827",-1.76,0.74,2.93,1.40,3.89,4.40,6.12,4.33,5.89,2.38,2.54,0.66,-1.11,-0.18,0.80,0.21,2.19,0.56,0.17,0.45,0.34,0.76,0.52,-1.81,-1.65,-0.69,1.16,-0.29,-0.78,0.52,-0.09,-1.42,-1.05,-1.50,0.96
"ex3828",-0.26,0.79,1.04,2.27,2.15,3.37,2.16,2.40,2.43,2.79,3.66,1.06,3.54,1.89,1.61,1.47,2.10,0.62,1.38,1.73,-0.57,1.32,-0.17,-0.44,0.84,1.50,-0.38,0.49,-0.96,1.17,0.78,0.87,-2.01,-0.52,-0.44
"ex3829",0.90,0.84,1.40,0.67,-1.11,1.37,3.11,2.65,2.35,3.64,5.01,4.70,3.74,3.51,3.19,1.54,2.09,-0.21,0.18,-0.63,-1.59,0.75,-0.63,-0.44,-0.05,1.39,0.19,0.85,1.00,-0.54,-2.36,1.01,-1.70,-0.10,0.32
"ex3830",-0.75,1.14,-0.97,-0.71,-0.97,-0.21,1.63,2.25,4.70,5.30,5.10,3.22,4.18,2.73,0.95,0.88,-3.97,0.27,0.56,-0.80,-0.84,3.09,0.40,-1.12,1.64,1.64,0.16,-0.24,0.82,-1.07,0.23,-1.57,0.19,0.84,0.96
"ex3831",0.15,1.85,0.63,1.62,2.30,0.74,3.52,3.53,3.74,3.83,5.14,2.05,2.23,3.10,0.44,2.66,1.14,-0.75,0.20,0.16,-0.07,1.00,1.06,0.40,1.51,1.50,-1.32,1.49,-0.14,-2.28,-1.51,-0.01,1.29,-0.21,-0.42
"ex3832",-1.39,0.18,0.12,-0.57,-0.15,0.13,-0.87,0.15,0.80,2.99,3.04,3.59,3.42,4.27,4.30,4.92,3.91,3.60,2.93,2.61,0.37,0.47,-0.70,-1.17,-2.23,-1.31,-2.28,-0.71,-0.09,0.60,-0.48,-0.80,-1.52,0.79,2.18
"ex3833",-1.19,0.22,1.36,-1.13,0.43,-0.15,-1.71,0.90,0.38,2.51,3.09,4.73,4.88,2.93,4.44,2.50,2.99,2.43,0.50,0.22,-0.19,-0.33,-1.35,-0.39,1.59,-1.94,1.40,-1.27,0.13,-1.40,-0.91,1.66,-1.34,-0.90,0.34
"ex3834",-1.11,2.58,-1.02,1.09,-1.77,-0.79,3.00,4.00,3.88,5.50,3.77,2.81,3.04,2.11,1.91,0.07,1.38,-1.56,0.20,-1.93,0.60,-0.07,0.45,1.93,-0.28,0.25,-0.74,0.26,0.26,-0.12,-0.08,0.65,0.16,1.88,-1.34
"ex3835",-0.80,0.96,3.03,2.13,6.66,3.43,5.10,7.21,4.73,2.87,2.49,2.78,-0.51,0.51,0.21,1.22,-0.45,-0.28,-0.65,-0.24,-0.49,-0.36,0.79,0.04,2.46,0.71,0.25,-0.27,-0.77,-0.60,-0.52,-0.42,0.29,0.74,-0.21
"ex3836",1.17,-0.29,1.86,0.28,2.70,2.25,4.02,4.27,4.86,4.97,4.39,4.08,2.72,1.18,0.86,1.40,0.24,-0.15,-0.75,1.02,0.99,-0.87,0.20,-0.44,1.07,-0.84,0.65,0.98,0.31,-0.28,1.25,0.09,-0.75,0.02,0.30
"ex3837",-0.45,1.28,0.20,-0.14,0.50,-0.09,0.33,-0.08,0.01,2.94,4.54,3.72,4.49,4.99,7.16,4.43,3.57,1.20,0.88,0.12,-0.67,0.79,1.03,-0.18,-0.31,1.26,0.27,-2.34,1.42,-0.56,0.38,-0.31,2.10,-0.46,0.53
"ex3838",-2.66,-0.32,-2.54,-1.52,-0.53,1.20,1.64,2.14,3.88,5.06,6.29,4.19,4.34,3.56,4.66,1.34,0.52,1.11,0.93,0.61,0.12,-0.45,0.29,-0.92,-0.11,0.07,1.54,0.24,0.75,-0.82,0.40,-0.69,-1.09,-0.31,-1.26
"ex3839",0.19,0.67,0.18,-0.57,1.79,1.61,4.38,3.51,3.60,3.69,4.68,4.31,2.82,1.35,1.54,0.49,-1.83,0.41,0.15,0.13,1.77,2.31,-1.06,1.18,-1.31,0.75,-0.80,0.38,-0.22,-1.23,0.20,0.73,-1.37,0.02,0.00
"ex3840",-0.62,-1.85,-1.22,-0.11,0.82,0.67,-0.05,1.35,0.68,1.68,1.59,3.16,4.74,5.22,5.39,4.56,1.60,1.90,2.19,-0.64,-0.12,-0.23,-0.47,-0.78,-0.37,-0.06,1.61,-0.77,-1.76,0.13,1.22,0.48,-0.82,0.75,3.14
"ex3841",0.19,1.21,0.83,-0.73,-0.10,-0.29,1.34,0.94,1.58,1.02,2.04,4.80,3.56,4.70,4.39,2.99,1.82,2.17,2.48,0.14,0.36,-1.76,-0.32,0.19,0.53,0.47,-0.32,1.19,0.29,-0.26,-0.04,0.07,-1.47,1.16,0.48
"ex3842",-0.34,0.80,1.48,3.50,0.54,3.51,4.82,3.89,4.92,3.28,4.32,3.10,0.27,1.38,1.07,-0.59,1.22,0.60,1.44,-1.11,-1.55,-0.29,-2.06,-0.70,0.59,0.18,0.03,-1.23,2.53,-0.16,0.51,-0.84,-1.79,-0.12,0.16
"ex3843",-0.45,-0.73,0.15,1.73,2.12,1.67,1.40,0.83,1.23,1.85,2.50,2.72,0.82,4.04,3.13,2.31,3.53,2.64,0.76,0.21,0.95,-1.21,1.59,-0.03,-0.82,-0.71,0.23,0.09,-0.05,1.07,0.37,-0.21,-0.80,-0.71,1.11
"ex3844",0.91,1.09,-0.36,1.59,1.80,3.19,3.55,5.28,2.67,4.51,3.02,2.63,1.59,3.11,0.96,0.28,2.39,-0.75,0.77,-1.75,0.43,-2.28,0.46,0.03,0.30,-0.34,1.11,-1.29,0.51,0.26,-2.64,-1.74,0.83,-1.16,0.63
"ex3845",-1.37,1.71,0.10,-2.93,2.15,0.48,0.16,1.20,-0.01,1.38,2.07,3.26,3.10,4.41,3.23,3.40,2.13,0.55,0.42,1.17,-0.53,1.12,1.02,-0.65,1.46,0.71,0.84,-1.64,1.18,0.28,-1.22,-0.61,0.83,-1.63,-0.59
"ex3846",0.99,-0.10,0.19,-1.82,1.16,0.03,0.96,2.76,1.62,2.86,5.67,5.58,2.90,3.11,2.28,5.13,1.90,0.80,1.61,0.07,-0.73,-0.85,0.78,-1.13,1.01,0.80,0.29,0.98,0.11,1.29,-0.10,0.61,-1.26,0.94,-2.99
"ex3847",-0.72,1.54,0.99,0.90,-0.94,-1.14,0.84,1.84,1.67,2.55,1.83,3.70,4.60,3.29,5.64,2.61,2.57,1.94,-0.60,2.99,1.37,0.94,0.07,0.12,-0.29,0.37,-0.73,1.12,-0.06,0.20,0.22,-0.26,2.10,0.77,0.34
"ex3848",-0.82,-0.57,0.68,1.06,3.77,4.54,6.03,5.36,3.41,1.72,2.18,2.69,1.01,0.99,0.98,2.15,1.12,1.03,-1.51,-0.81,-0.67,-0.24,-0.79,-0.22,1.03,0.10,0.23,-1.03,-0.96,0.42,-0.54,-0.13,1.21,-0.51,-0.58
"ex3849",-0.94,1.10,2.19,1.93,2.71,5.01,5.34,2.61,5.05,3.57,2.11,0.78,-0.81,-0.52,0.97,1.78,0.51,-0.09,-0.34,0.80,0.05,0.63,0.78,-0.20,-1.00,0.61,-0.50,0.86,0.20,1.02,-0.55,1.59,0.50,-0.58,-2.11
"ex3850",-1.07,1.96,-0.86,1.07,2.43,2.22,1.49,1.85,2.85,2.63,5.64,3.70,5.10,2.85,2.29,2.99,-0.56,0.59,-0.02,-1.28,0.35,-2.13,-1.13,-0.61,0.19,-0.12,0.69,-0.15,-0.53,-1.44,-0.90,-0.23,-0.60,-0.34,0.82
"ex3851",-0.97,-0.29,2.47,1.73,2.11,0.96,1.71,1.88,1.39,1.91,3.07,2.74,3.06,0.90,2.52,4.36,-0.08,-0.36,0.60,1.51,0.88,1.64,0.24,0.60,0.78,0.50,-0.03,-0.19,-1.64,-1.66,1.01,-0.59,-0.06,-0.95,0.70
"ex3852",-0.89,0.48,2.26,2.74,4.32,2.89,4.92,4.34,4.76,3.53,2.18,1.33,0.85,2.39,1.09,0.78,0.59,-0.25,0.73,1.07,0.20,0.55,0.96,0.20,-0.38,1.15,-1.62,-1.92,0.33,0.15,-1.02,-0.76,-0.11,-0.57,1.53
"ex3853",-0.69,0.45,-0.59,-0.39,0.31,0.65,2.06,1.95,3.46,4.25,4.73,4.23,4.93,0.93,1.24,1.20,1.10,-0.57,-0.58,0.92,-0.85,0.88,-1.65,-0.08,0.24,-0.26,-0.96,-0.22,-1.02,0.64,-1.11,-0.37,-0.28,-0.81,-0.54
"ex3854",-1.42,0.03,1.37,-2.33,0.51,1.22,2.64,3.13,2.66,3.52,4.90,2.42,3.71,2.01,2.17,0.52,0.39,-0.19,-0.80,-0.51,-0.16,0.95,0.37,0.16,0.72,-1.64,-0.55,0.13,0.59,-1.05,-0.18,-0.56,0.18,-1.04,-0.99
"ex3855",-1.46,0.59,1.36,2.77,2.90,3.61,5.60,3.63,2.21,3.41,1.35,2.22,0.00,1.95,1.28,1.49,1.18,1.42,0.37,-1.27,0.53,-2.16,-0.92,-0.94,0.37,-0.52,0.11,1.72,-0.14,0.73,-0.86,-1.28,1.12,0.44,-1.61
"ex3856",0.30,1.64,2.56,3.10,2.84,4.22,3.72,3.81,2.93,2.45,1.14,-0.16,0.44,1.74,1.58,-0.08,0.43,1.88,-0.76,0.01,0.26,0.73,0.77,-1.00,0.06,-0.05,-1.96,-0.41,1.03,1.03,-0.46,-1.04,0.19,-0.66,1.02
"ex3857",0.88,-0.71,-0.11,0.86,0.73,0.66,0.98,1.38,-0.65,1.49,1.80,0.96,3.78,5.07,4.40,4.90,4.34,2.05,1.67,1.92,0.90,2.47,1.07,-0.59,0.08,0.84,-0.02,-1.22,0.37,0.38,-1.37,0.77,0.27,0.56,-0.43
"ex3858",0.13,-0.60,0.71,3.95,3.42,3.16,2.94,3.53,4.16,4.98,3.90,3.00,1.38,-0.92,-0.12,0.71,-0.01,0.80,-0.40,0.94,-0.29,-0.43,-0.71,-0.29,-0.38,-0.52,-0.21,0.75,1.20,-1.89,-1.23,1.21,-1.20,-0.07,-0.96
"ex3859",-2.47,0.07,0.40,2.41,4.02,5.44,6.75,4.18,2.53,2.70,2.09,3.39,-0.28,-0.32,0.63,-0.14,-0.98,-1.19,0.15,1.15,-0.32,-0.58,0.42,-0.00,-0.49,0.30,-0.17,-0.92,-0.01,1.61,0.71,-0.32,-0.18,0.69,-0.96
"ex3860",-0.13,-0.65,2.27,4.12,4.21,5.12,5.48,5.78,4.72,5.67,4.29,1.05,-0.83,0.35,1.13,0.70,-1.14,-0.79,-1.41,-0.98,1.18,-1.09,0.39,0.66,1.03,0.44,-1.14,0.45,-0.92,0.82,1.22,-0.05,-0.22,0.31,2.37
"ex3861",-0.09,0.13,-0.43,1.84,1.30,1.13,4.23,2.51,2.97,4.95,5.02,2.44,2.79,3.33,2.70,1.26,1.11,1.14,0.53,-0.77,-0.13,1.26,0.70,-0.84,-0.38,-0.89,-0.74,-1.31,0.46,0.37,1.59,1.77,-0.97,1.12,-0.82
"ex3862",0.15,1.40,1.87,0.05,-0.74,1.15,2.92,1.93,4.50,7.29,7.20,3.77,1.55,3.22,1.36,1.61,-0.72,0.50,0.43,-0.17,1.00,1.67,-0.92,0.18,-0.33,-1.12,-0.94,0.44,-0.16,-0.38,-0.06,-0.88,-1.15,1.04,0.59
"ex3863",-1.21,-0.06,0.03,-0.45,1.65,1.68,3.33,2.80,4.35,5.39,6.66,4.93,1.72,1.97,2.43,0.61,-0.95,2.22,0.56,-0.15,-0.84,0.58,0.72,0.78,-0.79,-2.73,-1.84,0.77,0.34,0.06,-2.37,-1.39,0.06,-1.15,0.24
"ex3864",0.57,1.31,-1.95,1.74,0.65,0.33,0.20,0.72,0.07,2.46,2.71,2.00,2.35,4.66,5.46,4.85,4.06,2.66,1.66,0.52,0.16,-1.29,-0.31,-0.21,1.33,2.35,0.92,0.21,0.20,-0.28,-0.60,1.50,-0.73,-2.39,-0.82
"ex3865",1.25,1.86,1.30,0.22,2.02,4.70,5.23,4.43,3.74,4.05,2.83,2.39,0.98,0.75,1.60,1.18,1.00,-0.01,-0.06,-1.63,0.74,1.05,0.37,-1.66,0.09,-1.96,-0.91,0.09,-0.04,0.07,1.03,-1.19,1.92,2.30,0.96
"ex3866",-0.88,0.46,0.03,0.86,0.78,2.18,3.43,4.97,3.98,5.48,4.41,2.09,2.56,1.94,2.46,2.06,0.17,-0.13,1.60,1.22,0.67,0.91,-1.44,-0.18,1.67,0.50,-0.14,0.79,0.33,-0.09,-1.10,0.40,1.32,-2.04,0.19
"ex3867",0.33,-1.75,0.23,-0.95,0.90,-0.31,-1.04,0.56,2.15,2.12,4.05,3.69,3.80,4.62,6.44,2.41,4.22,1.76,2.12,1.93,-1.04,-2.08,0.15,0.19,1.20,-1.86,-1.53,-0.22,1.17,-1.03,0.68,0.44,0.27,0.50,0.44
"ex3868",0.16,0.14,1.86,2.88,1.81,3.58,7.60,4.83,3.27,3.98,1.67,1.07,-0.26,0.29,1.72,2.08,-1.02,0.28,-0.96,-0.30,-0.28,0.37,-0.70,0.57,-0.31,-0.85,-0.22,0.23,0.23,-0.40,-0.66,0.54,-0.28,-0.64,-0.99
"ex3869",1.23,-0.94,-0.43,0.31,-0.56,-1.70,1.62,3.75,4.39,4.60,4.70,5.09,4.28,3.04,3.09,1.93,1.03,1.20,2.97,0.12,-1.68,1.37,0.71,-1.25,0.40,-2.60,2.42,0.20,1.20,0.87,-0.59,1.46,-1.86,0.24,1.86
"ex3870",0.32,-0.41,-1.84,1.97,1.99,2.67,2.42,3.57,2.61,5.76,6.34,4.06,2.77,2.06,0.93,0.40,-0.58,0.23,0.81,1.46,0.36,0.80,1.15,0.62,-0.47,-0.38,1.76,0.31,-0.50,-0.18,-1.93,-0.82,1.09,1.53,-0.45
"ex3871",1.21,0.67,-0.12,3.35,3.15,2.85,3.91,3.13,3.86,3.67,2.31,1.78,0.87,-0.65,1.15,0.06,1.66,0.24,0.02,-0.29,0.77,0.24,-0.11,1.27,1.55,0.01,-1.35,0.53,1.04,-0.84,-1.08,-1.62,-0.74,0.22,0.20
"ex3872",-0.77,-0.28,1.27,-1.28,-0.09,-0.71,1.06,1.23,-0.89,0.82,2.72,3.38,3.80,3.05,6.58,3.41,3.89,2.07,1.30,-0.04,0.51,-0.01,1.10,0.39,-1.86,-0.62,-1.58,-0.89,-0.37,-1.39,1.56,-0.13,-0.44,-0.14,-0.32
"ex3873",-0.44,-0.16,0.09,3.12,2.28,3.99,4.18,3.22,3.82,2.96,2.32,0.12,1.27,-0.75,0.83,2.23,1.87,-0.13,0.17,0.19,-1.10,1.04,0.50,-1.15,-0.29,-1.84,-1.05,-0.45,-0.55,0.56,-1.54,0.11,-0.15,-0.17,-0.78
"ex3874",-1.06,-0.57,0.24,1.55,-0.40,0.72,0.88,1.23,3.83,5.14,6.06,4.59,4.41,4.46,3.26,3.98,-0.01,1.58,0.71,-0.52,0.40,-0.15,1.15,0.61,0.79,0.50,-0.55,0.40,1.32,-1.81,-0.16,-0.71,-0.03,0.74,-0.23
"ex3875",-0.49,-0.17,2.47,2.42,2.54,4.29,5.70,4.66,3.37,2.47,2.51,0.67,-0.54,1.25,-0.68,-1.16,0.17,0.28,-1.42,0.89,-0.67,0.19,-0.80,-0.73,-1.31,-0.17,0.04,-0.70,0.70,0.72,0.45,0.30,-1.81,-0.97,-0.40
"ex3876",-2.33,0.87,0.05,-0.50,-0.02,1.11,3.12,4.45,4.73,6.16,5.52,3.51,4.02,2.37,1.25,0.28,0.96,-0.57,0.59,-0.84,-0.23,-1.38,-0.80,0.53,0.61,-0.27,0.65,0.96,0.28,0.67,0.82,-0.54,0.26,1.00,-0.81
"ex3877",-0.91,-0.98,0.82,3.28,3.87,3.33,1.58,3.04,1.61,0.75,1.06,0.66,2.34,0.72,1.77,1.68,2.51,-0.12,0.86,-0.47,-0.02,-1.03,-0.36,-0.45,-0.04,-0.72,1.93,1.08,0.56,-0.85,-0.34,0.22,-0.28,-0.10,-1.92
"ex3878",-1.18,-0.80,-0.37,-1.94,-0.68,1.44,1.03,1.74,3.10,3.64,5.73,4.33,3.41,3.71,3.26,0.74,1.04,0.10,1.53,0.33,0.04,-1.53,0.56,-1.11,0.71,0.06,1.05,-0.44,-0.10,0.80,2.73,0.28,-0.32,1.37,-1.24
"ex3879",-0.19,1.01,0.38,-1.03,0.48,0.07,-0.05,-1.33,-0.31,3.32,2.45,4.18,4.91,3.89,6.87,4.18,2.49,1.91,0.88,0.35,-0.48,0.88,1.43,0.10,-1.00,-1.59,0.25,0.23,-0.24,0.38,-0.87,-0.77,0.71,3.04,0.97
"ex3880",-0.39,-3.07,0.74,2.48,2.90,3.88,4.32,2.24,3.92,4.15,1.42,1.32,1.71,1.40,0.95,-0.57,-0.50,-0.69,-0.38,-0.05,-1.56,0.15,0.25,0.90,-0.19,3.14,-0.50,1.68,0.46,-0.82,0.30,0.99,0.98,1.63,1.11
"ex3881",0.04,-0.67,0.62,0.41,1.90,2.07,3.05,2.26,1.37,2.90,1.27,2.47,2.03,1.70,3.48,2.33,3.05,2.07,0.72,0.90,-1.00,-2.00,-1.79,-0.24,0.85,1.71,0.38,-0.77,0.67,1.45,0.55,-1.07,-0.97,1.07,0.49
"ex3882",-2.25,1.13,0.45,0.83,1.16,1.44,2.78,0.92,-0.03,2.36,2.74,1.10,1.21,2.28,4.51,3.49,1.37,3.61,1.41,0.47,0.11,0.45,-0.34,-1.15,0.69,1.13,1.32,-1.55,0.22,1.35,0.47,0.40,-0.83,2.00,0.12
"ex3883",0.97,0.85,1.63,1.97,3.66,6.06,4.86,3.95,1.91,2.77,2.35,0.80,0.57,2.46,0.77,1.82,-0.34,1.31,-0.70,2.32,-0.49,1.10,-1.81,-0.71,-1.81,0.94,-0.17,-0.58,-0.87,-0.30,1.19,-0.90,-0.70,1.15,0.71
"ex3884",0.67,3.10,1.67,1.91,1.83,3.92,4.49,3.47,1.32,1.31,0.21,3.68,0.51,2.00,2.46,1.47,0.85,1.14,0.24,-0.65,0.70,0.84,0.44,-0.23,-0.95,0.56,-0.16,1.64,-0.04,-1.74,0.14,-1.05,0.72,-0.03,-0.26
"ex3885",-0.01,2.55,1.62,3.49,4.46,4.30,5.22,6.13,3.82,1.55,2.98,0.76,0.07,-0.17,-0.47,-0.73,-1.74,-0.08,0.02,0.90,0.77,-0.27,-0.41,0.04,-0.54,0.70,-0.89,-0.19,0.24,-0.55,1.59,0.74,-1.06,-1.91,-0.42
"ex3886",-0.30,-1.83,1.13,0.33,0.40,-0.56,0.07,0.95,1.79,1.27,2.33,1.16,3.58,5.22,6.24,3.98,2.17,1.98,1.90,0.78,0.39,-2.97,-0.95,-0.37,-0.37,1.95,0.13,-0.75,0.03,-0.40,0.87,-0.94,0.68,0.80,0.54
"ex3887",-0.67,-0.36,1.30,2.15,2.24,2.64,2.70,4.61,4.36,3.93,4.79,2.74,4.78,3.74,1.62,1.92,-1.86,-1.62,1.30,0.54,-0.93,-1.96,-0.43,-0.75,0.57,-0.20,1.67,0.87,-1.23,-0.79,-0.60,-0.53,-0.25,0.86,0.48
"ex3888",0.89,1.23,0.28,0.43,1.08,1.15,5.02,3.13,4.44,3.78,5.23,3.08,1.02,3.83,2.11,2.63,-1.64,0.58,0.18,-0.42,-0.79,-0.28,-0.17,-0.33,-1.20,-0.30,0.39,-0.90,0.11,0.13,-1.30,0.68,-0.80,-0.26,0.51
"ex3889",-0.34,-0.56,-0.42,0.62,1.73,0.04,2.57,3.43,1.43,2.79,5.70,6.86,3.35,4.27,3.93,3.28,2.15,-0.66,0.41,0.72,0.22,1.32,-0.74,-0.57,-2.87,-0.19,-0.13,-0.11,-1.73,-0.27,-0.60,-0.01,0.85,0.22,1.63
"ex3890",1.18,-1.20,-0.07,0.63,1.10,-0.12,2.34,1.78,2.08,3.61,1.48,4.89,2.63,3.55,4.15,2.61,3.13,-1.05,2.74,-0.03,-0.39,-0.01,0.80,1.61,-0.64,-0.54,0.65,-0.92,-1.69,0.68,-1.77,-0.18,1.23,-0.26,-0.28
"ex3891",-0.06,-0.02,1.57,-0.92,-1.01,0.75,-2.50,0.04,0.15,3.34,3.95,3.22,3.58,2.62,5.09,5.15,3.82,2.07,1.35,0.73,-0.14,-0.54,1.67,1.11,-0.54,0.59,1.61,0.36,0.65,-1.24,-0.71,0.93,-0.64,-2.20,-2.71
"ex3892",-0.69,1.57,0.80,0.31,2.20,1.44,4.61,3.55,2.11,1.17,2.55,1.48,1.21,4.59,2.07,1.32,2.44,1.06,1.65,-1.10,0.64,0.37,-0.76,-1.65,-0.02,-1.36,-0.46,2.65,1.81,0.71,-1.41,0.41,-1.30,0.96,-0.02
"ex3893",-0.05,-1.01,-0.99,-0.25,-0.64,-0.91,1.09,0.04,2.68,3.47,1.78,2.59,4.67,4.78,4.77,3.70,2.40,1.43,0.87,-0.86,-0.23,1.47,-2.45,0.88,-1.55,1.71,-1.07,-0.63,-0.07,-1.55,-0.70,0.90,0.53,-0.33,-0.40
"ex3894",-0.66,0.72,3.15,0.75,4.27,4.18,5.36,4.06,3.51,2.77,0.14,2.80,1.85,1.81,-1.49,-1.19,1.08,1.21,-0.51,0.04,0.63,-0.45,-0.72,-0.04,-0.66,0.04,-0.64,-0.72,0.24,0.02,-0.31,-0.98,0.22,-1.50,-0.64
"ex3895",-0.25,1.03,-0.32,-0.49,1.18,0.86,3.02,2.39,4.89,3.08,5.55,4.62,3.74,3.31,0.92,-0.33,2.00,-1.58,-0.68,-1.29,-0.70,-0.25,-0.35,2.20,1.68,1.03,-1.75,-0.77,-0.61,0.67,2.52,-0.03,1.48,1.63,1.75
"ex3896",0.97,0.39,-1.24,0.69,1.16,0.97,0.88,1.22,0.95,0.78,4.31,0.66,1.51,4.12,4.40,2.77,1.05,2.75,1.72,0.36,-0.75,0.22,0.61,-0.60,0.34,-1.22,0.42,0.48,-0.12,-0.24,0.46,-0.43,-0.18,-0.96,-0.32
"ex3897",-0.60,0.84,0.32,1.23,-0.49,0.38,3.23,3.14,3.27,5.03,6.74,4.11,3.72,3.60,1.37,1.20,0.97,0.22,0.43,2.66,0.44,0.10,-0.48,0.42,0.52,0.18,0.90,0.75,1.07,0.98,0.63,0.50,0.01,-0.17,-0.86
"ex3898",-0.40,0.79,1.20,1.32,3.05,1.49,-0.21,-0.40,0.53,0.96,2.04,3.34,4.07,4.39,6.26,4.86,2.94,5.29,0.43,0.94,0.02,-0.30,1.12,-1.91,-0.80,0.09,0.67,0.49,-1.02,0.58,-0.92,0.21,1.25,-0.57,0.91
"ex3899",-2.14,-1.20,-1.30,-0.57,0.77,0.55,1.13,1.73,3.69,4.21,4.93,6.67,4.46,1.93,4.00,0.51,-0.15,-0.72,-0.41,0.32,-0.58,0.78,-0.30,1.21,1.86,-1.15,0.53,1.60,-0.07,0.09,-1.29,-0.01,0.30,-0.60,0.37
"ex3900",-0.08,0.35,1.78,1.34,0.44,-0.66,-0.63,0.28,1.81,3.11,0.81,3.63,4.59,4.01,6.52,4.43,2.80,3.60,1.93,0.34,-0.96,1.83,1.99,-0.44,1.81,1.81,0.61,0.06,-0.53,1.60,-0.21,0.59,-0.48,-2.57,0.70
"ex3901",-0.55,0.19,1.82,2.28,1.27,1.47,1.16,3.02,6.43,5.31,6.70,4.15,1.91,1.58,1.19,-0.07,-0.38,-1.74,-0.61,-0.58,-0.30,0.11,-1.04,1.11,-0.69,0.55,1.08,1.14,0.75,2.12,2.32,0.14,1.81,-1.62,-2.45
"ex3902",-1.40,1.08,0.53,-0.01,0.37,1.41,1.88,1.39,1.73,0.18,2.08,3.95,2.87,3.71,4.75,3.71,4.12,2.35,1.99,1.86,1.68,-0.63,-0.28,-1.26,-1.22,-0.08,0.46,0.80,-0.46,-0.86,-1.12,-0.37,1.87,0.68,-0.23
"ex3903",-0.25,-0.37,-1.14,-0.70,-0.27,-0.91,-0.29,0.06,0.33,0.63,1.18,2.56,2.58,4.30,6.64,4.78,3.94,2.73,2.58,1.46,1.17,0.26,-0.94,-0.43,0.56,-1.28,-0.68,-0.87,0.54,0.25,-0.10,0.02,0.32,1.14,2.14
"ex3904",-1.14,-0.68,0.36,0.60,2.70,1.77,3.60,4.95,4.09,3.84,4.40,4.26,1.89,2.75,1.37,0.90,1.67,2.26,0.84,0.69,0.39,-0.68,-0.41,2.16,-2.47,-0.32,-0.21,0.69,-0.26,0.14,-1.02,-0.73,1.68,-1.03,1.38
"ex3905",-1.02,-0.58,2.37,4.20,4.08,1.62,4.89,5.28,4.39,1.94,1.30,2.02,2.38,1.31,1.13,0.22,2.02,0.32,-1.00,0.98,-1.02,-0.10,0.99,1.48,-1.21,-1.95,0.02,-0.21,-0.31,-0.05,0.20,-0.49,1.46,0.58,-1.11
"ex3906",-0.02,0.43,-1.30,-0.53,1.61,1.14,3.22,1.11,4.21,4.79,6.11,5.55,4.19,4.82,2.90,1.65,0.40,0.20,0.31,3.85,1.70,-0.51,1.00,0.54,-2.22,0.40,-0.31,0.72,-0.56,-0.07,-0.61,0.34,-1.59,-0.26,-0.76
"ex3907",0.63,0.83,-0.73,-1.18,0.40,1.85,0.04,1.81,1.72,0.99,2.45,3.87,3.37,5.47,3.81,2.44,1.42,0.77,-0.43,0.04,1.56,0.64,-0.70,0.18,0.37,0.10,0.98,-0.51,1.53,0.75,-0.47,0.41,-0.40,1.03,0.70
"ex3908",1.20,-0.30,0.61,0.69,0.95,1.64,1.58,2.03,1.37,0.39,4.45,2.33,1.46,3.90,4.82,5.59,4.32,3.47,1.53,1.32,-0.38,0.30,0.10,-0.09,-0.33,-0.55,-0.06,0.22,-0.73,-1.13,-1.25,0.65,0.35,0.36,1.73
"ex3909",0.22,0.11,0.71,2.41,2.92,2.49,2.59,4.02,5.77,5.06,2.44,3.93,2.08,1.00,1.14,1.32,-1.60,-0.99,0.67,-0.71,-0.87,0.07,-1.52,0.93,0.90,-0.26,1.02,-0.72,-0.16,-1.84,-0.19,-0.45,-0.42,-1.05,0.74
"ex3910",0.53,0.79,1.33,0.28,0.75,1.56,2.20,4.08,3.22,3.74,4.41,5.32,3.62,4.22,-0.26,2.05,-1.92,0.37,-1.02,-0.49,2.31,0.10,0.29,-0.53,-1.40,0.39,-2.45,0.88,0.94,0.88,2.13,-2.01,-0.02,-0.37,-0.54
"ex3911",-0.58,1.72,-1.05,2.32,0.11,1.97,2.85,2.23,3.91,3.69,4.23,4.50,3.10,2.07,0.96,1.71,0.08,0.53,-0.49,-1.04,1.81,0.80,-0.15,-0.53,-0.44,-0.18,-0.08,0.23,0.58,0.30,-0.60,0.14,-0.64,0.05,0.21
"ex3912",1.34,0.29,0.54,2.18,1.38,3.83,1.97,3.21,-0.86,2.89,1.32,1.77,2.65,2.87,3.15,2.67,3.12,1.18,1.37,-1.16,0.12,1.94,0.33,-0.09,0.73,1.14,-0.02,-0.84,1.18,-0.57,0.92,0.24,0.67,0.58,0.99
"ex3913",-0.24,0.63,2.47,2.80,3.91,5.13,7.67,6.81,2.31,0.91,1.39,0.53,1.63,1.63,0.52,2.32,2.89,0.47,1.34,0.02,-0.56,0.54,1.01,2.31,1.74,1.39,0.82,-1.16,-0.54,-1.60,0.79,-0.16,-0.75,-0.63,1.78
"ex3914",1.40,-0.21,-0.07,-0.40,-0.56,-0.65,1.28,1.08,4.58,3.83,5.06,4.76,4.07,2.05,0.80,2.34,-1.15,0.58,1.22,-0.78,-1.14,0.63,-0.16,0.88,0.17,-0.75,0.20,-1.35,-0.48,-0.91,2.28,0.27,0.57,2.26,-0.01
"ex3915",-0.23,-0.06,-0.94,0.61,0.07,1.80,0.67,1.09,1.71,2.91,2.57,3.79,3.42,4.43,5.13,2.72,0.69,1.96,0.96,-1.33,-1.69,-1.46,1.72,0.49,-0.21,1.92,2.21,-0.43,-0.83,-0.22,-0.64,-0.60,1.82,-0.18,1.42
"ex3916",-0.10,-0.12,1.76,3.16,4.13,3.72,4.20,3.08,2.89,4.61,0.77,3.34,2.01,0.82,1.14,-0.34,0.20,-0.46,1.49,0.38,-1.25,1.58,-2.06,-1.02,2.41,0.01,1.27,0.64,-2.13,-0.38,-0.86,0.27,0.76,1.10,-0.37
"ex3917",0.04,-0.08,0.56,1.22,0.15,-1.40,1.48,2.70,2.45,4.41,5.28,4.56,4.50,2.97,2.60,3.80,1.56,2.33,1.81,-0.38,0.98,0.43,0.11,-0.43,-0.70,1.29,-1.17,1.01,1.27,0.48,-0.60,1.71,0.59,-0.78,0.23
"ex3918",-0.11,0.84,2.67,2.11,4.27,2.87,4.85,4.38,4.63,3.81,1.17,2.58,-0.47,0.59,0.27,-0.29,-0.26,0.21,-0.47,-1.61,-1.89,-0.32,-0.28,0.38,0.90,-0.30,1.62,0.61,0.59,-0.60,-0.37,1.49,-0.67,1.16,0.13
"ex3919",0.18,0.11,2.12,1.29,1.37,1.67,4.52,2.57,1.99,3.31,2.37,-0.32,1.14,2.87,3.23,2.08,1.56,3.24,0.68,0.85,1.13,0.32,-0.43,-0.28,0.40,0.23,-1.38,0.77,-1.15,-1.02,0.13,-0.39,-1.14,-0.42,-1.38
"ex3920",1.27,-0.09,-1.14,-0.62,-0.43,1.28,2.75,1.89,4.92,5.44,4.17,3.90,4.67,3.42,2.00,0.28,-0.65,-0.60,-0.82,-0.28,-0.05,1.10,-0.12,-0.96,1.57,0.81,1.82,-0.46,1.29,-0.29,-0.07,-1.52,-0.56,0.70,-1.04
"ex3921",1.47,-0.92,-0.90,2.11,3.31,0.32,1.48,3.29,5.95,2.83,6.79,3.06,1.10,1.17,2.96,0.73,-1.00,0.03,2.41,-0.71,0.92,0.88,1.16,-0.72,-0.11,1.18,-0.16,-1.11,0.80,0.77,0.99,0.40,-1.62,-0.30,-0.30
"ex3922",0.57,2.25,0.19,0.13,-1.45,0.10,-0.35,0.72,0.14,-0.79,0.03,2.26,2.79,5.32,5.12,5.15,5.21,3.37,0.32,-0.01,1.71,0.41,1.22,0.47,-0.60,-0.47,0.87,0.98,0.29,-0.00,-0.01,-2.07,0.58,0.90,-2.02
"ex3923",-0.46,0.26,-0.69,0.43,0.38,-0.35,0.70,1.31,0.92,1.79,2.03,2.66,3.78,3.88,6.40,6.97,2.97,3.03,2.66,1.57,0.58,-0.85,-0.14,0.04,1.17,1.47,-0.55,-1.04,0.94,0.14,0.76,0.83,0.04,-0.79,-0.79
"ex3924",0.43,-0.41,-0.10,0.76,0.45,0.20,-0.08,0.11,-0.20,1.60,0.14,2.79,3.39,2.83,5.97,3.40,3.43,2.12,2.37,-1.65,0.63,0.83,-1.99,0.29,0.26,0.14,0.90,-1.88,-0.26,-1.02,-0.74,0.58,1.66,-0.50,0.56
"ex3925",0.64,-0.90,0.27,0.24,0.21,0.80,2.52,3.20,2.55,3.73,4.91,3.79,4.35,3.81,3.94,2.01,1.25,-1.25,-0.22,-0.97,0.91,-0.68,1.22,0.10,-0.03,0.26,-0.86,0.50,-1.31,1.35,0.75,0.79,0.07,-0.42,1.37
"ex3926",-0.87,2.04,-1.70,0.79,-0.27,-1.44,-1.12,-0.62,0.04,1.85,1.08,1.44,5.23,3.90,8.03,5.56,4.61,3.14,1.98,1.99,0.70,-0.00,0.53,-0.70,-0.06,-0.06,0.53,-0.06,-1.08,2.36,-0.96,-0.37,0.97,0.93,-0.47
"ex3927",-0.52,1.28,1.46,2.70,5.25,3.96,6.81,5.60,4.84,3.03,3.47,0.95,-0.04,-0.73,-1.04,-0.22,-0.96,0.89,-1.59,1.36,-0.08,-0.61,0.05,0.36,-1.95,1.01,2.27,0.32,-0.73,-1.58,1.26,-1.31,2.50,-0.64,-0.49
"ex3928",-0.50,1.06,-0.15,-2.21,-1.98,1.02,2.04,1.86,3.48,3.06,4.44,4.29,2.74,5.68,5.11,2.57,0.60,1.76,-0.17,-0.05,0.03,0.05,-0.97,-1.56,-1.54,0.95,-0.23,1.41,1.70,-1.07,-0.25,0.80,0.08,0.37,-0.34
"ex3929",-1.10,0.44,0.95,1.53,1.93,1.18,2.53,1.06,1.61,0.29,1.85,1.82,4.03,2.26,2.87,2.02,2.58,1.51,1.67,0.74,3.27,0.88,2.04,0.16,-0.48,-1.72,0.51,-0.89,0.11,-0.31,0.58,-1.63,0.16,1.24,0.25
"ex3930",-0.07,1.47,0.62,-1.00,2.13,0.37,0.20,1.84,0.24,1.95,1.82,2.61,2.56,2.71,4.70,2.44,1.76,0.83,2.99,0.36,1.18,0.10,1.48,-1.05,-1.69,-0.00,-2.29,0.48,-1.61,0.24,-0.08,1.27,-0.25,-1.10,0.50
"ex3931",-0.68,-1.18,-0.60,2.25,0.73,0.85,1.19,0.94,1.84,1.23,3.67,3.19,5.01,5.05,5.34,4.64,2.71,1.74,2.15,1.87,0.22,-1.90,-1.16,0.91,-1.18,-0.21,-0.27,-0.35,1.13,0.86,-0.76,-0.87,0.05,1.24,-0.81
"ex3932",-0.09,0.78,1.11,-0.49,-0.04,0.76,4.17,1.51,1.06,3.82,5.31,6.35,3.26,3.35,2.76,3.07,-0.88,-1.02,0.42,-0.88,-1.62,0.07,0.41,0.13,-0.03,1.17,0.14,-2.18,0.31,0.16,-0.66,1.86,1.17,-1.23,-0.55
"ex3933",-0.24,0.43,1.18,3.78,1.53,3.52,6.72,6.60,3.23,1.97,1.85,2.57,1.79,0.57,-0.67,-0.61,-0.85,0.46,2.15,-1.01,-1.12,-1.59,1.22,-1.36,-2.10,-0.29,-1.39,-0.63,-0.10,-0.88,0.40,0.36,0.40,-1.47,0.51
"ex3934",-0.69,0.47,1.05,2.19,2.94,3.15,7.88,4.30,3.12,3.11,2.01,2.29,1.63,0.52,-0.25,0.60,-0.23,-0.48,0.06,1.47,-0.35,-1.12,-1.87,0.42,0.55,-0.65,1.85,-0.07,0.52,1.16,1.01,-1.49,-0.44,-0.83,-0.73
"ex3935",2.73,0.95,0.72,1.46,0.79,3.28,2.53,4.23,4.54,1.49,6.75,2.28,1.02,1.18,1.02,1.08,-1.35,-0.59,0.31,-1.49,-1.11,-0.29,-0.95,0.17,-0.57,1.57,0.17,-0.02,1.05,0.46,-0.22,0.00,-1.06,0.65,0.23
"ex3936",1.07,0.68,0.22,0.83,-1.15,1.38,0.60,3.28,4.84,3.74,5.49,4.01,4.94,5.54,4.31,3.26,0.59,0.34,1.15,-1.12,-0.86,-1.77,0.32,0.24,-1.02,-0.92,1.31,-0.52,-1.74,-0.40,-0.24,-0.21,1.62,-0.63,0.01
"ex3937",1.44,-1.58,2.69,0.89,2.19,5.40,5.24,5.52,5.92,3.37,4.34,0.61,-0.23,0.41,0.12,0.09,-1.73,-0.79,0.83,0.01,0.18,-0.68,0.52,-0.34,0.71,-1.80,-0.42,0.07,0.68,-1.41,1.35,-0.82,-0.23,-1.20,-0.50
"ex3938",-0.57,-0.60,-0.90,1.47,2.84,3.56,5.34,5.66,3.78,4.62,7.13,2.00,2.26,3.02,0.83,0.50,0.46,-0.56,-1.83,0.68,0.98,-0.37,0.82,0.11,-0.58,0.97,0.36,0.89,-2.31,-1.14,-1.44,0.71,0.29,0.53,1.23
"ex3939",-0.07,0.90,2.20,2.27,2.81,4.35,6.90,6.62,4.45,4.75,3.21,1.82,-0.58,0.32,0.34,1.21,-1.78,-0.99,-1.02,-0.78,0.73,1.95,1.37,1.15,0.62,1.54,-0.19,-1.30,1.25,-0.65,-0.09,1.35,-2.28,0.41,2.16
"ex3940",-0.47,0.96,0.85,2.37,-0.36,0.61,3.93,1.07,2.47,2.73,1.84,2.14,1.67,2.71,1.64,3.72,-0.16,1.30,2.62,1.95,-0.34,2.16,0.08,-0.94,-0.19,-0.19,1.62,0.66,-0.15,-1.15,0.89,0.70,0.76,1.23,1.09
"ex3941",-0.95,-0.84,-0.20,-1.10,0.00,2.32,0.89,1.40,3.66,3.90,4.29,4.04,4.20,3.40,2.20,1.85,0.58,0.18,0.26,-1.00,-0.60,-0.31,0.99,-1.15,0.85,0.32,-0.54,0.13,1.47,-0.02,-1.02,1.10,0.03,-0.03,-0.30
"ex3942",-0.10,-0.25,1.17,0.12,0.11,0.95,0.07,1.14,0.53,1.48,1.60,3.23,2.81,4.52,4.02,4.64,3.86,2.95,1.49,-1.21,0.07,-3.21,-0.36,2.56,0.45,0.10,1.65,0.39,0.05,-0.40,-0.54,-0.42,-0.42,0.06,-0.15
"ex3943",0.50,0.54,-1.49,1.13,2.26,-0.59,2.43,3.59,4.14,4.94,4.56,3.29,2.54,2.87,1.55,0.37,-1.18,1.55,-1.37,0.88,0.64,-1.08,1.70,-0.87,0.75,-1.08,0.57,-0.69,-0.53,1.08,0.56,0.76,-0.36,0.58,0.69
"ex3944",0.72,1.45,0.86,3.04,3.57,1.91,4.38,4.86,5.34,6.10,2.07,3.49,1.45,1.18,1.59,-1.58,-1.28,-0.56,0.31,-0.70,0.24,-2.05,-0.87,0.62,0.68,0.08,-1.99,-0.62,0.40,-0.60,0.77,-1.34,0.01,2.47,-1.46
"ex3945",0.54,0.59,0.36,0.36,-0.36,-1.08,1.66,0.33,0.98,3.47,3.73,3.84,3.07,4.43,3.41,4.45,3.26,1.57,1.56,0.91,0.79,-1.00,-1.40,0.13,0.01,2.39,0.32,1.23,-1.32,0.26,-0.26,-0.82,0.67,1.12,0.56
"ex3946",0.64,-0.85,-1.07,0.87,-0.76,1.78,0.17,1.24,-0.95,1.27,3.14,3.22,3.03,5.89,6.27,4.81,2.33,1.92,1.54,2.05,-0.65,0.21,-0.80,0.53,1.21,1.25,0.39,1.27,-0.37,-0.65,2.10,0.34,0.49,0.75,0.02
"ex3947",0.73,0.72,-1.17,1.50,1.98,2.14,2.09,3.30,0.97,2.55,0.05,1.44,3.02,2.53,1.68,3.64,2.10,3.50,-0.08,0.11,1.22,1.63,-0.71,-0.13,0.87,0.01,-1.87,1.77,1.74,0.03,1.04,1.40,0.04,-0.81,-1.20
"ex3948",-0.83,-0.16,0.69,-0.78,1.41,2.57,0.60,2.84,4.77,2.66,4.66,4.30,2.53,3.22,2.27,1.18,-0.26,-1.36,-0.14,0.52,-0.01,0.04,0.69,-0.87,0.49,0.34,-0.49,0.75,-1.27,1.14,1.67,2.07,-0.35,0.80,0.47
"ex3949",-0.88,0.81,0.23,0.96,0.82,1.43,2.88,1.93,1.52,3.58,2.95,1.37,1.27,3.96,4.12,3.16,1.29,2.56,0.04,0.31,-0.69,-2.43,0.09,-0.52,-0.50,-0.83,1.04,-1.64,1.55,-0.53,2.74,-0.57,3.11,-1.01,1.48
"ex3950",-0.92,-0.74,0.29,0.58,0.61,-0.38,0.38,3.94,3.21,4.04,5.08,5.07,6.31,2.46,2.98,2.28,0.55,1.05,-0.16,-0.02,-0.15,-0.44,-0.94,0.92,-2.03,0.37,-0.39,-0.16,-0.73,-0.51,1.64,1.55,1.59,0.79,0.18
"ex3951",1.34,-0.81,1.84,2.13,2.85,3.65,5.11,4.56,3.54,4.31,2.74,2.35,2.61,0.90,0.89,0.80,0.41,1.11,1.27,-0.48,0.40,-0.89,-1.68,-1.78,-0.43,-0.85,0.89,-0.68,-0.32,1.77,1.30,0.34,1.36,0.35,-1.17
"ex3952",0.66,-0.65,2.86,3.67,3.77,3.62,5.01,4.09,5.37,3.08,2.65,1.55,0.74,-0.40,0.46,-1.09,0.30,0.71,0.83,1.17,-0.60,0.16,0.58,1.50,1.17,-1.39,1.01,-1.17,0.84,0.59,-0.47,-0.10,0.44,0.57,-1.36
"ex3953",-0.31,0.08,2.35,3.73,4.15,5.12,5.67,3.55,4.42,3.20,2.00,1.66,0.64,2.54,0.12,0.76,0.52,1.82,-1.40,2.02,-0.28,-1.44,0.43,0.01,0.72,0.10,-0.45,0.05,0.69,-0.92,0.40,0.34,-0.72,-0.07,0.04
"ex3954",1.48,-0.45,1.56,3.10,2.66,4.36,4.10,3.43,3.95,2.65,1.85,1.04,0.50,0.16,1.77,0.70,0.52,-0.20,0.44,0.76,-1.39,-0.87,-0.22,1.80,-0.62,0.67,-0.02,-1.19,-0.10,0.39,-0.35,-1.88,-0.07,-1.26,1.54
"ex3955",-0.21,1.92,2.12,0.84,0.46,1.00,5.35,2.93,2.55,5.14,4.42,4.01,1.56,-0.19,1.73,0.58,1.02,-0.23,0.73,-1.05,-1.47,-0.35,-2.23,0.91,1.53,0.29,-0.40,-1.45,0.32,0.44,-0.70,0.45,-1.50,0.62,0.46
"ex3956",0.21,0.97,0.53,1.44,1.11,1.61,1.08,2.34,3.26,1.94,2.89,2.03,3.24,2.95,2.56,2.57,2.48,1.84,2.71,0.19,0.64,1.96,1.46,0.89,-1.53,-0.13,-0.05,-1.03,-0.38,-0.40,-0.79,-1.82,1.03,-0.17,0.05
"ex3957",-1.20,1.59,-0.16,1.12,0.19,1.14,-0.12,0.19,-0.81,1.04,1.36,3.50,4.96,7.63,5.64,6.62,3.31,2.23,1.36,1.64,0.11,-0.76,-0.59,0.70,0.01,0.01,-0.65,0.66,-0.19,0.19,-0.20,-0.71,0.05,-1.05,0.80
"ex3958",-0.70,1.23,-0.39,2.33,1.60,1.69,1.18,1.50,0.46,3.79,1.67,1.80,0.89,4.48,2.37,1.74,3.12,0.57,0.07,1.37,0.79,1.00,-0.13,-0.76,1.33,-0.29,-0.34,0.71,1.67,-0.95,0.59,-1.08,0.65,-0.01,0.74
"ex3959",0.48,0.24,1.58,2.47,0.98,5.10,6.75,4.39,3.92,2.31,0.45,1.92,0.03,-0.97,0.19,0.24,0.30,0.33,-2.25,-0.64,0.70,0.51,-1.22,-1.16,-0.51,-0.34,0.69,-0.33,-0.27,0.94,0.22,-0.60,0.23,-0.15,0.05
"ex3960",-2.20,0.03,0.12,1.19,1.79,5.26,2.83,3.71,4.22,3.91,4.91,4.05,2.96,1.30,0.29,1.68,-1.06,1.19,1.81,0.34,-0.55,-0.60,0.17,-1.02,-1.48,0.06,1.56,0.43,1.84,2.00,-0.48,0.45,-0.23,0.88,-1.55
"ex3961",-0.39,0.78,1.55,3.68,3.33,3.79,3.42,3.44,2.45,3.00,3.71,2.74,-0.04,1.88,0.01,1.00,1.67,-0.59,-0.24,-1.21,0.34,-1.76,0.02,-1.15,-0.65,0.89,0.52,-1.03,-0.19,0.07,0.45,0.18,-2.05,0.64,1.37
"ex3962",-0.12,0.08,0.35,1.22,2.36,0.73,1.75,0.45,1.79,0.78,3.80,3.24,0.21,3.38,4.82,2.88,3.30,0.47,0.80,1.16,0.65,0.42,-1.10,-1.01,-0.46,1.77,-1.22,-1.03,-0.83,-0.08,1.20,2.01,-0.50,1.64,-1.51
"ex3963",-0.84,-0.15,3.67,0.52,0.57,1.32,0.61,0.15,0.64,-0.34,1.94,3.19,4.65,4.45,4.21,4.51,4.00,3.60,2.53,-0.83,1.53,-1.13,0.41,0.68,-0.79,-0.58,-2.36,-1.68,1.67,-0.43,3.12,-1.12,-0.88,1.44,-0.69
"ex3964",-0.20,-0.62,0.90,2.07,3.50,4.63,5.24,4.23,4.43,2.93,2.68,1.74,0.39,0.06,0.44,0.23,-0.38,-0.10,0.89,-0.72,1.38,0.55,-0.98,0.67,0.94,-0.48,0.76,-0.16,-0.15,0.20,0.38,0.89,1.71,1.63,0.34
"ex3965",-1.25,1.86,-0.34,1.18,2.27,0.89,2.26,3.66,0.89,0.90,1.83,2.79,1.32,1.49,3.17,1.46,4.40,3.91,-0.73,0.64,-0.96,0.91,1.04,-1.07,1.04,-0.24,0.09,-1.13,0.93,0.85,-1.02,0.15,2.14,-1.98,1.32
"ex3966",2.40,-0.59,-0.95,0.32,1.06,-1.30,0.92,1.58,1.88,3.17,3.53,4.00,3.56,4.73,5.30,4.29,2.41,3.12,2.49,0.53,0.66,0.72,0.45,0.80,2.25,-1.35,0.53,-1.68,-0.50,1.06,-1.78,0.57,0.93,0.43,0.44
"ex3967",0.12,1.44,2.17,-0.31,1.70,-0.06,0.76,0.06,3.18,1.65,4.41,3.30,3.58,3.98,3.92,2.81,2.35,1.41,2.47,1.59,-0.20,-0.46,-0.47,1.91,0.09,-0.25,1.44,1.95,-0.96,0.87,1.17,-0.22,0.43,0.18,-0.58
"ex3968",-0.55,0.76,0.77,2.48,4.10,3.71,5.79,4.07,1.60,2.49,0.39,2.10,0.59,0.70,0.96,1.93,0.42,-0.22,-0.12,0.56,-0.83,-0.70,0.23,1.06,-0.38,-1.65,-0.28,-0.84,-0.99,0.93,0.18,-0.33,-0.88,-1.00,-2.41
"ex3969",0.05,-0.39,-0.57,0.69,0.06,2.23,1.52,3.11,4.77,4.29,5.09,4.63,0.91,3.93,0.80,-0.48,-0.35,-0.50,-0.11,-1.38,-0.64,0.22,-1.07,0.89,-0.84,-0.15,0.02,-1.85,-0.57,1.17,1.50,0.26,0.71,2.45,0.29
"ex3970",-0.28,-1.95,-0.68,0.47,0.19,0.83,1.25,1.68,-0.72,-0.67,4.52,4.66,5.10,4.39,5.99,5.95,3.06,1.89,1.40,1.99,-0.93,1.86,0.28,0.30,-0.09,0.27,1.78,-0.94,1.67,-0.33,0.58,2.80,-1.83,-1.50,-0.59
"ex3971",-0.26,0.08,0.58,-0.91,-0.05,2.27,1.66,3.37,4.46,4.91,6.83,4.68,1.83,2.30,-0.40,1.19,1.18,1.16,-0.72,1.62,0.28,0.41,-1.29,0.05,-0.74,-2.71,-0.99,2.76,0.01,0.24,1.96,0.69,1.38,2.04,1.28
"ex3972",-0.88,0.03,-1.07,1.63,2.13,3.00,2.78,1.48,3.07,1.41,2.76,3.20,1.48,3.05,3.57,1.78,0.67,0.20,2.62,-0.27,-0.43,0.16,-1.50,-0.82,0.70,-0.94,-1.93,0.45,-1.21,-1.23,0.82,0.58,1.29,1.95,0.82
"ex3973",0.88,2.35,0.43,0.79,2.89,3.55,2.55,3.86,3.59,3.54,2.11,3.19,3.07,1.53,0.29,1.38,0.40,0.40,1.65,-0.45,0.29,-1.41,0.15,0.27,-0.47,-0.56,-0.87,-0.88,-1.50,1.69,-0.17,0.20,0.81,1.07,0.64
"ex3974",-0.61,0.76,0.89,2.42,4.01,4.83,7.10,3.90,5.53,3.60,3.42,0.80,-1.58,-0.87,-1.89,2.80,0.11,0.93,0.34,-1.84,-2.33,0.92,0.95,0.26,-0.21,0.17,0.15,-0.75,-0.21,0.73,0.88,1.52,0.77,0.82,-0.21
"ex3975",0.05,-0.12,0.90,2.06,2.20,4.94,3.27,3.47,2.05,3.40,3.10,0.97,1.40,2.88,2.59,1.81,2.63,0.82,0.53,0.83,0.03,-0.72,-0.40,0.26,-0.36,0.16,-0.78,1.45,-2.36,0.68,-0.30,-0.65,1.43,1.91,-0.76
"ex3976",0.80,-0.28,2.22,-0.97,0.90,-0.32,1.21,2.95,0.42,2.96,3.87,2.65,3.26,3.27,4.85,2.73,0.72,1.78,0.58,0.39,-1.43,-1.44,-1.03,2.71,-0.67,-0.38,0.74,0.08,1.15,0.12,-0.33,0.54,2.00,-1.06,-0.14
"ex3977",-0.54,0.54,3.87,3.63,2.56,4.50,4.79,3.56,4.43,4.07,5.39,3.77,1.17,2.02,0.67,0.50,-0.81,-0.01,0.14,-0.14,0.06,0.69,0.30,-0.10,-0.49,0.13,-2.10,1.26,-2.02,1.65,-0.21,0.91,0.28,-1.64,0.90
"ex3978",-0.40,0.24,-0.06,-0.10,-0.13,1.16,1.20,-0.15,-0.59,0.70,1.97,3.54,4.26,4.15,4.29,4.70,4.33,3.17,2.62,1.48,0.91,0.21,0.17,-0.93,0.23,-0.68,2.85,1.10,0.21,0.05,0.09,-1.23,2.51,0.55,-0.09
"ex3979",0.78,-0.88,1.04,1.34,-0.54,1.47,2.41,1.39,3.44,5.41,5.63,4.65,2.88,4.17,0.50,1.38,-0.18,-1.61,2.07,-0.51,0.57,1.11,0.68,1.26,-1.43,0.82,-0.16,0.10,-0.42,-1.57,0.07,-0.00,0.75,0.22,-0.80
"ex3980",1.04,1.08,-0.07,0.10,0.52,-1.56,0.95,1.16,2.49,1.01,3.29,2.66,3.75,6.17,5.19,5.23,3.19,1.34,2.05,1.17,0.85,1.26,0.67,1.25,-1.10,-0.07,0.14,-0.19,0.30,1.96,0.52,0.36,-0.26,0.35,-0.65
"ex3981",-0.29,1.29,1.66,0.88,1.10,1.33,2.34,2.59,3.60,3.23,3.54,4.45,3.79,2.32,2.00,1.61,0.11,0.14,-0.97,0.47,1.18,0.80,-0.87,0.80,-0.32,-1.79,-0.68,-0.21,0.24,0.01,2.24,-1.12,1.02,-0.78,-0.73
"ex3982",-0.20,0.95,4.21,4.16,2.26,4.92,5.29,4.76,2.93,2.25,2.46,0.54,1.78,-0.57,1.93,1.03,1.33,1.19,-0.34,1.30,0.71,-0.72,-0.27,-0.69,1.01,-1.09,0.35,0.59,1.34,0.91,-0.09,0.18,0.54,1.24,0.37
"ex3983",-1.08,1.64,-0.19,2.46,2.82,4.25,3.35,3.70,2.18,2.07,2.20,1.22,2.24,2.07,1.01,3.08,1.56,-0.18,-0.23,-1.58,-0.23,-1.33,-0.38,0.11,0.32,0.27,-2.16,0.23,0.60,-2.29,-0.84,0.04,0.36,-1.36,0.46
"ex3984",-0.74,-0.53,2.33,3.48,4.70,5.79,4.39,4.25,4.33,2.54,1.54,2.83,0.72,0.97,0.91,-1.18,-0.73,0.65,-0.43,-0.66,-0.08,1.11,-1.26,-1.81,0.85,0.33,-1.00,1.78,-1.23,1.55,0.04,-0.47,-0.71,0.37,-0.31
"ex3985",0.21,0.93,1.60,0.78,-2.18,-0.21,1.40,-2.00,-0.74,3.88,1.50,5.07,5.01,5.74,4.76,3.06,2.58,3.19,1.67,0.10,-0.96,-1.41,-0.05,-0.08,0.86,0.77,2.44,2.24,0.92,1.90,0.26,0.83,-0.77,-0.74,-0.78
"ex3986",-0.25,1.68,0.25,2.77,2.48,2.41,5.27,5.28,3.40,4.32,3.09,2.90,1.99,0.67,1.24,1.48,1.50,0.91,-1.57,-0.61,0.26,-0.05,-0.71,-0.95,-1.22,1.69,0.43,-0.25,-0.09,0.20,0.01,0.98,-1.89,0.35,-2.14
"ex3987",0.36,0.95,0.55,-0.32,-0.53,-0.62,0.64,1.23,0.56,3.24,3.28,3.36,5.20,2.45,3.97,4.26,2.36,0.82,0.38,-1.07,-0.32,-0.98,0.08,-1.03,-0.40,-1.03,2.07,0.81,-2.24,0.93,0.05,0.94,0.81,1.60,-0.63
"ex3988",1.14,0.67,1.05,1.97,1.37,4.71,4.59,3.89,4.61,4.16,5.56,2.36,2.65,1.14,-0.67,0.80,-0.42,-1.44,-1.49,-0.08,0.34,0.13,0.88,-1.99,0.65,-1.05,-0.86,0.63,0.54,0.56,1.34,2.11,0.43,0.17,0.81
"ex3989",-0.03,0.88,0.06,0.24,-1.22,0.69,0.50,2.26,1.93,3.42,3.83,5.26,3.19,2.73,2.38,1.56,1.00,1.33,0.42,0.09,-0.08,-0.71,-1.70,1.00,2.21,-1.89,-0.81,0.86,-0.42,-0.18,-1.63,0.14,0.14,-0.95,1.00
"ex3990",-0.58,-0.55,-1.78,0.55,-1.32,1.56,1.26,3.17,1.40,3.02,4.82,2.92,3.25,3.82,2.54,2.27,1.93,2.03,-0.94,0.81,0.49,0.62,-0.37,0.84,-0.18,0.32,-1.11,-0.08,1.31,-0.19,1.39,1.24,-0.89,-0.10,-0.02
"ex3991",-0.17,2.47,-0.59,-0.71,0.94,1.82,1.61,1.34,3.22,4.57,2.06,2.32,4.10,5.48,2.35,0.82,0.47,2.15,3.10,0.37,2.17,-1.60,-2.16,0.87,0.44,0.80,-0.80,0.96,0.32,-0.17,1.63,-0.25,0.24,1.08,-0.08
"ex3992",0.94,-0.73,2.66,0.70,2.91,2.17,4.05,2.79,4.15,4.15,4.60,4.72,2.89,3.56,1.85,1.13,0.50,0.00,1.01,0.30,-0.15,-0.77,0.86,1.49,0.08,0.17,-1.14,-0.54,-0.35,-0.57,-0.52,-0.36,1.58,-1.75,-0.45
"ex3993",0.80,-0.72,-0.03,-0.98,-0.23,1.16,1.57,4.16,4.85,5.14,5.68,5.34,5.18,4.49,1.41,1.65,0.94,0.32,0.54,-1.79,-0.14,0.25,0.76,0.61,-0.25,-0.66,0.51,-1.70,-0.33,0.43,-0.06,0.31,0.68,-0.39,-2.02
"ex3994",-1.02,1.30,0.88,3.67,4.61,3.19,6.86,5.29,4.37,2.40,-1.04,2.80,0.52,-1.07,-0.05,1.16,-1.07,-0.41,-1.32,1.65,1.84,-1.11,-0.36,-0.16,1.44,-0.53,1.42,-0.10,-0.06,0.56,-0.53,-0.85,-0.04,-1.27,0.91
"ex3995",0.67,0.42,0.25,2.34,2.10,6.06,4.60,4.75,4.54,3.81,4.51,2.60,1.16,2.25,2.95,-0.05,-0.34,-0.30,-0.01,0.20,-0.81,-0.10,1.11,-1.57,-1.14,-1.34,-0.18,-0.34,0.24,-0.02,-0.52,0.50,0.00,0.66,0.32
"ex3996",-0.76,1.94,2.49,0.20,3.14,4.73,7.43,3.43,4.61,3.39,1.88,0.52,0.50,0.17,-1.21,1.05,-2.21,-0.21,-0.44,1.65,0.35,1.17,-0.34,-0.52,1.05,0.38,-0.63,-0.99,0.31,-0.36,-0.08,0.35,-0.20,1.28,0.41
"ex3997",-0.62,1.27,1.35,2.41,1.59,3.30,4.76,5.13,4.43,4.31,3.21,4.44,1.47,2.21,1.93,1.62,-0.39,-0.78,-0.75,0.08,-0.33,-0.80,1.37,-0.23,0.30,-1.05,-1.31,1.00,0.63,-0.85,-0.37,0.47,0.91,-0.56,0.04
"ex3998",-0.85,-2.63,-0.88,0.14,1.46,0.91,0.12,-1.08,-0.32,1.22,0.93,4.24,4.58,3.35,5.87,2.68,3.79,2.91,2.23,1.43,1.96,0.09,-0.86,1.06,0.93,-0.41,0.70,1.22,-1.97,-0.00,0.23,0.45,-0.47,0.03,0.25
"ex3999",1.44,-0.16,0.44,1.90,0.63,0.32,0.74,0.51,0.08,1.12,2.40,2.34,3.90,6.19,3.66,3.85,2.75,3.42,1.31,0.39,0.28,0.80,0.00,1.41,-0.42,1.07,-0.87,-2.12,0.07,-0.34,0.61,0.30,-1.51,0.62,1.41
"ex4000",-0.53,0.88,-0.64,-0.85,-1.63,-0.32,2.69,3.51,4.06,3.51,5.45,4.23,4.11,5.37,2.70,1.72,0.15,0.82,-0.97,0.77,0.13,-0.72,-1.20,-1.06,-0.07,-0.35,0.68,0.94,0.33,-0.33,0.05,-0.07,0.14,-0.79,-0.51
"ex4001",0.87,-0.20,0.64,1.56,1.87,2.71,5.07,0.78,3.28,4.49,5.40,4.43,3.29,2.76,2.31,0.85,0.40,1.66,1.35,1.16,-1.29,1.04,-1.69,0.36,-0.49,0.28,1.23,-0.50,1.04,-0.66,0.05,1.17,1.05,0.61,1.48
"ex4002",0.50,0.68,0.39,-0.12,-0.38,0.43,1.99,1.87,3.93,5.65,5.66,4.04,6.31,3.78,1.96,-0.43,0.55,1.07,0.23,0.91,1.02,0.05,-0.99,-0.52,-0.15,-0.41,-0.79,-0.76,2.22,0.19,-1.40,0.57,-0.86,1.09,-0.63
"ex4003",-0.29,-0.22,0.18,-0.20,0.60,0.47,2.97,2.33,3.87,6.62,6.34,5.15,3.26,1.73,1.25,1.18,0.15,0.44,-0.95,1.04,-0.40,-0.96,0.45,1.20,-2.18,-1.23,1.37,-0.31,0.35,-1.00,0.62,0.15,1.48,-0.92,-0.31
"ex4004",-0.33,0.07,-1.97,1.66,2.33,1.91,2.27,-0.08,1.74,3.27,4.09,4.91,2.22,5.04,5.10,4.50,1.05,2.38,1.34,3.52,-1.17,0.61,-2.09,1.53,-0.68,1.37,0.23,0.69,-1.19,-0.11,1.41,2.92,1.18,-0.64,0.32
"ex4005",-0.30,-1.48,1.78,1.17,1.90,4.16,3.23,4.10,2.21,2.71,3.21,2.12,1.70,2.50,3.46,2.22,3.15,2.75,1.70,-0.57,-1.36,3.42,-1.31,0.35,-0.71,0.74,-0.21,0.04,0.59,0.81,-1.10,1.00,-1.68,0.34,0.55
"ex4006",-2.38,-0.22,0.99,0.99,-0.23,1.77,0.68,2.86,2.15,0.65,4.12,1.40,4.36,4.64,3.99,1.72,1.94,1.51,1.38,1.21,-0.51,-0.32,1.24,-0.02,-0.91,-1.24,0.54,1.34,-0.27,-0.13,-0.25,-0.89,0.51,0.11,-1.27
"ex4007",0.39,-0.16,3.04,0.72,3.55,5.43,5.03,4.76,3.54,1.30,2.12,2.43,1.34,-0.65,1.09,1.25,1.12,0.41,-0.41,-0.88,-0.99,-0.12,-0.04,1.31,1.86,-1.42,1.03,-2.30,0.62,0.43,-1.03,-0.32,0.97,0.39,1.10
"ex4008",1.07,0.36,-0.71,-1.17,-0.79,1.00,0.68,1.50,-0.19,1.85,1.41,2.85,4.24,6.03,4.90,5.85,4.16,3.11,2.12,-0.69,1.10,0.03,-0.29,0.33,-1.05,0.56,0.29,-0.34,-0.22,-0.04,-0.08,0.87,-1.75,0.11,0.94
"ex4009",-1.61,-0.18,1.80,3.37,3.17,3.94,5.98,4.79,1.94,2.39,1.22,1.11,1.87,1.38,3.39,0.68,-0.58,0.11,0.54,-0.17,-0.31,1.13,-0.42,-1.30,-0.65,1.91,1.00,0.04,1.67,-0.08,0.57,0.39,0.47,-0.90,-1.06
"ex4010",0.28,0.71,1.36,-1.58,-1.61,-0.07,-0.21,0.55,1.71,3.25,2.33,4.16,3.84,4.48,4.97,4.79,1.97,2.75,0.25,-0.15,0.46,-1.21,-0.32,0.27,0.14,0.41,-0.02,-0.35,1.13,-0.42,0.07,-0.21,0.02,-0.95,-0.71
"ex4011",-0.44,1.34,1.99,2.45,4.57,3.94,6.05,4.85,4.27,3.53,0.06,-0.32,-1.56,-0.86,0.67,-0.96,0.44,-0.41,1.30,-0.55,-0.25,-0.83,-0.33,-0.24,-1.28,-0.78,-1.37,-0.14,-0.81,-0.19,-0.95,-0.29,0.28,1.57,-1.32
"ex4012",-0.59,-1.82,2.33,0.34,0.30,0.35,-1.10,-0.08,0.04,1.18,3.09,2.59,3.07,4.47,5.13,4.60,2.78,1.45,2.33,2.81,1.29,-0.12,1.16,0.36,-0.80,-0.27,0.01,-1.49,-0.16,-1.83,-0.49,1.84,0.71,0.79,1.68
"ex4013",2.13,-0.30,-0.57,-0.24,1.43,-0.11,0.66,2.44,2.61,5.16,5.91,5.46,4.60,1.42,0.92,2.20,0.62,0.29,1.09,-0.08,0.30,-0.29,-0.30,-0.93,-0.48,0.77,-0.89,-0.46,0.63,0.47,-1.17,1.14,-1.08,0.76,-0.33
"ex4014",-1.57,1.07,1.78,0.75,2.27,0.39,1.31,2.34,1.68,1.33,1.69,3.06,3.37,4.25,4.15,4.68,3.33,2.09,0.80,1.93,1.12,-0.08,1.50,-0.54,-1.00,-0.70,0.46,1.79,0.35,-0.88,0.75,-0.84,-0.24,0.18,0.36
"ex4015",-1.10,-1.49,2.43,0.75,1.23,2.77,3.75,0.98,1.04,0.85,1.12,2.36,3.17,2.88,2.59,3.16,4.27,0.31,0.11,-0.28,-2.46,0.55,-1.14,-0.58,-0.24,-0.84,0.17,-0.92,-1.58,0.46,-0.46,-0.30,-0.92,-1.58,0.31
"ex4016",-0.75,1.77,1.06,5.00,2.86,4.39,5.27,4.35,1.55,2.16,3.50,1.22,0.74,-1.47,-0.69,0.20,0.95,-0.09,0.26,1.02,1.55,-1.05,-0.04,1.04,0.22,0.86,0.79,-0.78,0.55,-0.23,1.56,-2.36,1.12,1.38,1.29
"ex4017",-0.19,-0.32,0.51,-1.22,0.65,-0.03,2.05,0.97,-0.80,3.08,1.35,3.57,4.49,3.24,4.73,5.87,3.73,1.90,0.73,0.53,-1.83,-0.86,-0.87,-0.00,-0.12,1.95,-0.49,1.37,1.08,0.07,0.12,0.07,1.23,-1.83,-0.35
"ex4018",-3.12,0.42,0.17,-0.81,1.46,1.05,2.46,2.74,3.75,4.30,2.98,5.92,3.98,2.51,1.64,2.17,1.27,-1.18,0.95,-0.36,-0.28,1.22,-0.72,0.47,0.48,-0.48,-0.80,-1.55,0.00,0.41,0.86,0.89,-0.63,0.80,-1.13
"ex4019",1.11,0.50,0.31,-0.41,-0.83,-0.55,0.50,1.72,0.61,4.73,4.99,3.67,2.17,3.99,2.46,4.60,2.42,0.12,2.04,1.32,0.01,1.96,1.17,1.23,1.97,1.40,-1.45,0.47,1.10,-0.28,-0.06,0.33,0.17,-0.75,1.04
"ex4020",-0.22,-0.77,0.27,-0.73,-1.05,0.62,2.94,0.99,2.51,5.44,4.30,4.16,3.31,1.69,2.83,2.05,2.23,0.66,-0.90,0.90,-0.57,1.28,0.12,0.30,0.04,-2.00,0.95,-1.02,-0.44,0.34,-0.89,1.54,-0.59,-1.28,-0.24
"ex4021",0.60,-0.62,1.40,0.09,0.03,0.40,2.14,4.27,0.99,1.70,1.00,1.73,2.88,2.58,4.27,2.44,1.05,2.54,-0.53,-0.21,-0.11,0.41,-1.48,-0.97,0.88,0.14,1.42,-0.69,0.55,1.00,0.11,-1.23,0.01,0.80,1.65
"ex4022",-0.89,1.11,0.66,0.72,-1.32,1.92,3.84,2.41,3.12,5.58,5.12,4.84,2.97,2.88,1.60,1.00,0.62,-0.58,-0.86,2.80,-0.40,0.11,-0.53,-0.39,1.34,0.16,1.17,1.94,1.13,-1.12,0.32,2.26,-1.72,-1.33,-0.36
"ex4023",-0.22,-0.63,1.10,-0.09,0.06,-0.47,2.11,1.67,0.22,1.74,2.25,3.44,4.44,3.19,3.79,3.79,4.26,4.14,2.86,-0.77,-1.99,0.59,-1.25,-1.49,2.39,-0.04,-0.72,-0.30,0.88,-0.67,1.03,1.04,1.18,1.25,-2.01
"ex4024",0.31,1.14,1.08,-2.07,-1.91,0.98,-1.68,0.72,0.83,0.35,2.89,2.98,4.30,4.54,6.35,3.58,4.05,-0.06,2.25,1.31,0.98,0.64,0.70,0.73,-0.45,-0.43,1.01,-0.92,-2.23,-0.15,-0.73,-0.76,-2.62,0.55,-1.69
"ex4025",-0.44,1.66,-1.13,0.31,-0.06,0.63,-0.61,1.41,1.74,2.14,3.55,4.20,3.24,6.47,3.61,3.58,1.06,2.73,1.15,1.16,-0.49,1.10,0.41,0.65,0.30,0.67,0.17,-0.71,-0.66,-1.00,2.89,0.21,0.34,-1.29,0.81
"ex4026",-0.12,1.81,0.68,-2.02,0.09,-0.34,0.50,1.81,0.11,2.15,3.53,3.38,3.00,3.53,3.97,1.51,1.23,1.08,0.19,0.55,-0.18,-0.46,-0.06,-0.36,0.59,1.18,-0.47,2.41,0.67,0.53,0.21,1.49,0.86,1.84,0.95
"ex4027",0.73,0.57,1.66,1.80,3.15,3.69,3.82,4.26,4.15,1.84,3.94,2.50,1.27,1.36,3.70,1.87,0.90,0.48,1.30,1.22,-0.59,-0.26,0.31,-1.21,0.62,-0.77,0.05,0.52,0.43,0.40,-2.89,-0.68,-0.44,0.60,-0.75
"ex4028",0.65,0.72,1.26,0.56,4.43,5.28,5.98,6.95,2.64,2.93,3.09,-0.11,0.46,-0.84,1.29,-1.03,1.38,-0.50,1.58,0.42,-1.38,-0.21,-1.08,0.21,-0.14,-0.67,1.23,0.17,-1.67,-0.56,0.23,0.87,-1.03,-0.42,-0.69
"ex4029",0.73,-0.00,1.55,2.98,2.44,3.43,5.89,6.51,4.33,3.23,2.48,0.67,0.66,-0.35,-0.26,-0.76,-0.25,1.14,0.01,0.76,0.27,0.28,1.68,-0.64,-0.85,2.12,0.34,0.77,-1.44,0.67,-1.08,-0.30,-1.76,-0.72,-0.25
"ex4030",0.63,2.01,0.64,2.37,2.87,4.26,2.91,4.12,2.02,1.66,1.56,1.45,2.26,0.83,1.14,0.47,0.78,-0.02,-1.38,-0.44,1.45,0.94,-0.08,-0.72,-1.35,-0.28,-2.39,-0.33,0.60,-0.89,-0.32,-0.47,0.52,-1.19,1.21
"ex4031",-2.39,0.50,3.50,2.45,3.22,5.40,5.01,4.67,3.86,4.66,2.42,2.28,-0.01,0.66,1.79,0.68,0.51,-0.57,2.38,1.87,0.21,-1.02,0.22,0.81,0.17,0.47,-0.69,2.52,0.85,0.63,0.99,-0.03,-0.79,0.27,-0.28
"ex4032",0.69,-1.28,1.11,3.55,2.20,1.39,6.58,6.34,3.27,3.41,3.86,3.63,1.49,1.20,2.31,-1.27,2.35,0.67,-1.56,0.42,-1.20,-0.27,-1.48,0.96,-0.28,-0.01,1.11,0.14,-0.45,-0.37,-1.10,-1.29,1.38,0.84,-0.61
"ex4033",0.44,0.32,2.05,-0.21,1.97,1.58,0.57,3.53,0.56,0.87,2.01,2.54,3.05,5.00,6.06,2.05,3.45,2.04,-0.42,0.01,1.73,-0.22,-0.57,-0.77,1.82,1.42,-0.34,0.61,-0.44,0.22,0.12,-0.23,0.17,0.51,-1.13
"ex4034",-1.55,0.45,-1.25,-1.22,1.54,1.89,1.10,2.84,3.07,5.66,6.90,5.37,5.50,1.81,2.86,-0.16,0.45,1.39,-2.90,0.89,0.59,-0.30,-0.46,1.98,-1.42,-0.20,-0.62,-0.42,2.32,-1.16,-1.81,-0.54,1.88,-0.09,0.59
"ex4035",-0.48,-0.08,1.32,2.62,0.55,2.08,3.76,5.25,5.05,5.33,5.33,2.91,2.18,2.87,1.08,0.39,1.68,1.37,0.96,-0.52,1.00,1.16,0.03,-0.41,1.76,0.33,0.16,0.29,-0.93,-0.46,0.27,0.54,1.49,0.34,-0.54
"ex4036",0.63,0.54,-0.29,-0.10,-0.71,0.21,1.68,3.31,3.48,3.28,5.80,2.16,3.55,3.82,1.66,1.23,0.99,2.00,-0.60,0.43,0.27,1.06,-0.64,0.65,0.75,-2.07,0.04,-0.36,-0.43,0.10,-1.48,1.92,0.24,-1.13,-0.71
"ex4037",0.70,1.01,2.08,-0.02,1.69,0.71,3.69,0.14,0.56,2.77,1.93,1.60,3.34,3.60,3.64,3.62,1.30,2.17,2.15,2.30,0.16,0.05,-0.45,0.25,-0.16,-0.15,0.99,1.36,0.75,-0.32,-1.09,-1.90,-1.01,-0.89,-0.94
"ex4038",0.12,0.68,1.12,-0.15,1.31,3.52,2.40,1.10,1.74,3.53,2.80,1.49,1.05,3.67,5.83,2.65,3.78,2.52,0.04,0.57,-0.54,-1.77,-0.18,-1.73,1.03,0.09,-0.62,-1.40,-0.46,0.73,1.59,-0.08,1.77,-1.04,-0.33
"ex4039",1.67,0.73,0.21,-0.00,-0.65,-1.80,0.18,-1.36,-1.30,1.64,1.54,3.25,2.72,5.83,5.24,4.51,3.99,3.25,1.73,1.23,0.15,-0.97,-0.70,-0.07,-0.07,-1.62,-0.04,1.14,-0.41,2.04,1.28,0.00,1.81,-1.11,0.13
"ex4040",1.02,1.99,3.06,0.71,3.96,2.76,4.42,1.00,2.91,0.80,1.16,0.58,1.33,2.81,3.21,2.65,1.74,1.52,0.09,0.11,0.98,0.54,0.75,-2.35,-0.51,2.12,-0.19,-1.04,-1.05,-0.12,1.63,0.76,0.18,0.19,-1.30
"ex4041",1.04,-1.53,0.00,0.68,1.13,0.98,-0.19,1.10,3.29,2.80,4.43,4.72,4.87,3.28,4.44,2.06,0.38,2.61,0.07,0.63,-0.76,1.18,-1.25,0.97,-0.79,0.33,1.98,-1.14,0.71,0.09,-0.92,-1.38,1.00,0.36,0.19
"ex4042",-0.22,-0.00,1.84,1.89,2.73,2.85,2.75,3.02,1.90,1.80,2.08,1.59,2.68,2.05,3.76,2.04,1.41,1.93,0.14,0.90,0.55,0.13,0.04,-0.34,0.40,0.02,-2.28,0.74,-1.31,-1.33,0.95,1.42,-1.25,0.08,0.53
"ex4043",-0.56,-0.39,1.63,-0.97,1.02,-0.34,2.32,0.27,-0.87,0.46,3.08,3.68,3.77,5.34,6.56,5.23,5.81,1.53,2.57,1.32,0.92,-0.43,1.95,-0.38,0.69,-1.03,1.01,-1.66,-0.12,2.18,0.39,1.69,1.28,0.37,0.33
"ex4044",-0.37,-0.64,-1.46,-0.09,-1.80,0.81,0.41,3.08,1.60,4.07,3.34,4.53,4.50,3.80,3.65,2.79,2.42,-0.54,-0.38,1.87,0.43,0.17,-2.14,0.85,0.79,0.74,-1.88,-1.41,-0.16,-0.19,0.43,-0.44,-0.46,0.27,0.37
"ex4045",1.06,1.01,1.03,2.18,2.90,3.41,3.77,4.24,4.65,2.32,2.63,2.77,2.21,1.08,1.14,1.55,-1.18,1.74,1.56,-2.14,-0.45,-0.93,2.21,0.97,3.88,0.86,0.12,-1.10,-0.71,-0.85,-0.60,1.18,0.69,-0.81,-0.78
"ex4046",1.83,0.17,-0.09,1.68,3.09,3.50,2.92,3.50,2.44,0.98,2.00,2.22,1.53,2.48,2.16,2.74,3.38,0.24,-0.18,1.33,0.34,-0.24,0.41,-0.39,1.01,-0.45,-0.37,0.08,-0.58,0.80,0.68,-0.82,1.46,-0.86,-0.15
"ex4047",0.76,-1.30,1.06,4.11,4.87,5.53,5.39,4.85,3.09,2.89,0.46,1.34,0.35,-0.85,-0.01,0.81,0.90,-1.25,0.36,-1.06,-0.46,-0.21,-0.70,0.32,0.13,-0.39,-0.42,-0.28,-0.69,-0.42,-1.08,0.26,-0.23,1.43,0.97
"ex4048",0.29,0.70,0.58,0.01,2.33,1.20,4.40,2.71,2.51,1.10,5.07,2.06,1.77,2.36,4.07,4.19,2.02,1.46,1.27,-1.05,0.16,0.76,0.62,0.70,-1.24,2.23,0.26,-0.63,-0.08,0.02,-0.09,1.34,-0.17,1.35,0.07
"ex4049",0.76,-0.34,1.78,0.41,2.32,1.91,4.17,3.17,3.95,4.32,3.06,4.00,4.47,0.02,1.12,0.93,-2.24,-1.98,-2.53,1.02,1.07,0.84,0.45,1.98,0.21,-0.00,-0.99,0.45,0.65,-0.75,-0.32,-0.85,-1.20,-0.65,0.97
"ex4050",0.27,1.45,0.72,0.14,3.21,3.92,4.18,3.50,3.15,2.22,3.29,0.86,1.39,2.63,2.01,1.76,2.10,0.66,0.61,-0.56,-0.46,0.84,-0.57,1.09,1.07,-0.82,2.77,-0.07,-0.15,-0.62,-1.12,-0.42,-1.65,1.50,-1.02
"ex4051",1.83,1.21,-0.03,0.13,0.42,0.31,0.79,2.22,3.07,4.40,5.18,3.49,4.31,4.45,1.75,2.17,1.27,1.23,1.02,1.03,-0.41,-0.94,1.46,-0.23,0.54,-0.55,-0.00,-1.22,-1.60,0.66,2.31,-0.11,-0.64,1.64,-0.49
"ex4052",-1.46,-1.83,0.08,0.35,0.96,0.33,2.31,4.43,4.36,3.35,6.18,3.99,3.09,4.65,0.78,0.65,-1.51,-1.86,0.99,0.09,0.19,-0.26,-2.19,1.97,-0.65,-0.12,-0.64,0.79,-1.25,-0.06,1.45,-0.60,0.15,-0.26,-0.73
"ex4053",0.56,-0.05,2.50,2.23,0.73,1.84,2.01,1.21,0.39,-0.47,3.58,1.54,0.69,1.37,3.62,5.17,1.31,2.98,1.57,1.50,-0.27,1.12,-0.75,-1.24,1.04,-0.10,-0.61,-0.15,-0.23,-0.87,0.76,-0.60,-0.70,-0.32,2.29
"ex4054",0.96,0.96,1.44,-1.13,-0.74,0.28,0.64,1.88,0.91,1.17,4.03,3.03,1.97,3.38,4.35,3.37,2.59,2.50,1.08,-1.22,0.34,0.39,-1.05,-0.69,-0.74,0.19,-0.06,0.39,0.61,0.41,0.59,0.84,-0.89,0.72,-0.69
"ex4055",0.01,-0.44,1.14,-1.85,-0.45,1.84,1.87,2.17,2.48,2.82,5.34,3.71,2.54,5.31,1.73,2.42,0.50,-0.05,0.62,-0.41,0.67,-1.44,-0.66,-0.58,-1.05,0.96,0.53,-0.25,0.90,0.39,-0.97,3.19,-0.46,1.39,-1.53
"ex4056",-0.61,0.80,0.35,-0.61,-0.50,-1.58,0.04,1.06,0.47,0.25,2.52,1.99,3.34,4.85,6.34,6.31,2.72,3.48,1.68,0.02,-0.38,-0.83,-0.53,-1.84,-0.46,-0.83,1.87,0.52,0.83,0.90,2.03,0.36,-0.08,-0.87,-1.36
"ex4057",1.04,-1.45,-0.28,0.55,0.92,-1.46,-0.04,1.72,0.83,0.37,4.97,2.61,6.09,3.95,5.76,3.66,2.89,1.15,1.46,0.64,-1.25,-0.80,-1.81,0.11,0.79,0.42,-0.91,-1.24,1.72,-0.28,-1.19,0.95,0.10,-0.36,-1.27
"ex4058",-0.74,1.49,-0.05,2.63,0.79,2.29,5.72,4.82,4.70,3.85,1.70,1.53,0.85,0.51,0.53,-0.44,0.42,-0.73,-0.18,0.52,-2.80,0.26,-0.36,-0.52,0.23,-1.36,-0.92,-1.19,1.26,0.88,0.30,0.14,-1.06,1.40,1.83
"ex4059",-1.13,1.48,-0.50,-0.52,0.48,2.07,2.87,-0.55,-0.45,1.71,2.44,3.24,2.12,4.27,6.38,4.91,3.53,0.94,1.50,-0.18,-2.10,-0.49,0.82,-0.55,1.31,-1.63,-0.97,-0.21,-1.67,-0.82,2.04,-0.94,0.13,-0.70,1.40
"ex4060",1.04,-0.08,-0.88,1.14,0.27,0.76,3.73,3.14,4.28,5.43,7.71,3.80,3.06,2.24,1.78,1.38,1.50,0.01,0.08,0.66,-1.09,0.52,-0.35,1.88,-0.07,0.00,0.08,-1.90,0.22,0.63,1.25,0.54,-2.12,0.35,-0.63
"ex4061",-0.05,0.08,-0.30,-0.17,-0.95,0.11,0.25,2.02,1.58,2.79,3.62,5.54,4.97,4.99,3.65,2.41,3.33,0.74,1.47,0.60,0.71,-0.29,1.00,-1.48,-0.10,-0.55,-1.87,-0.48,0.56,0.95,-0.31,-1.74,0.05,-0.69,-0.17
"ex4062",-0.04,-0.08,2.48,1.97,3.38,3.78,3.84,3.98,4.24,5.33,4.01,2.55,3.18,0.34,2.11,1.47,0.23,2.07,0.32,-0.28,-0.06,-2.57,-0.33,-0.50,0.42,0.27,-0.44,1.13,-0.57,-0.55,-0.62,-1.92,0.95,1.06,-0.21
"ex4063",0.44,0.19,0.01,1.89,0.85,3.06,4.60,3.04,3.79,2.54,4.66,3.15,2.30,0.94,1.17,0.19,-0.16,-2.30,0.25,-1.25,-0.81,0.83,-0.12,1.72,-1.29,-0.67,1.72,-0.58,1.12,-0.59,-1.38,-0.25,2.40,0.15,0.16
"ex4064",0.10,0.16,1.40,-0.50,-0.70,0.71,-0.40,1.00,4.25,3.57,3.17,2.68,4.18,5.90,5.42,2.09,2.11,0.93,-0.26,1.92,0.73,-1.34,-0.44,-0.53,2.04,0.93,0.26,0.71,-1.16,-0.99,-0.56,0.30,-1.04,-0.54,0.78
"ex4065",2.01,-1.05,-1.34,1.17,1.15,-0.31,1.23,3.23,3.84,5.94,6.88,5.75,2.87,2.09,2.79,0.50,0.75,0.01,0.76,0.34,0.57,0.39,0.61,1.52,-1.75,0.68,0.86,0.44,0.23,-0.69,1.22,0.16,0.75,-0.61,-1.37
"ex4066",-0.33,-0.97,-0.04,-1.84,-0.82,1.03,1.61,0.96,3.53,3.40,5.60,4.87,4.18,1.52,0.79,1.69,0.97,-0.48,1.85,-0.31,0.47,1.51,1.94,-2.25,-0.65,-0.78,-2.59,1.21,0.98,-0.29,-0.11,-1.25,-0.72,-0.69,0.08
"ex4067",-1.59,1.05,-0.18,0.13,-0.16,-1.19,-0.60,-0.42,0.82,0.89,1.94,1.99,4.11,4.81,4.75,4.21,5.42,5.08,0.64,1.43,2.07,-0.99,-0.03,-0.62,1.59,1.58,2.16,-1.38,2.29,-0.09,-0.05,0.16,0.82,0.58,0.05
"ex4068",-1.00,-0.47,2.53,0.63,0.06,3.26,2.59,0.28,2.27,0.94,3.58,2.45,1.32,2.64,4.88,4.45,4.05,2.96,0.45,0.59,0.44,-0.47,0.44,2.51,-0.82,1.10,0.45,1.08,0.34,0.64,-1.20,-2.15,1.36,1.66,0.00
"ex4069",0.90,0.13,0.06,0.96,-1.77,1.72,2.71,1.92,5.67,6.73,6.28,3.72,1.58,2.70,1.71,-0.78,-0.59,-1.42,2.44,-1.06,1.45,-2.35,-1.14,1.10,0.80,0.45,-0.43,0.67,-1.32,-1.36,-0.48,0.04,2.43,1.25,-2.55
"ex4070",0.73,-0.05,0.11,0.25,0.65,-1.35,-0.20,0.35,0.57,2.46,3.81,2.52,2.94,4.66,6.74,6.86,2.56,1.92,0.73,1.23,1.02,-0.89,-0.49,0.32,-0.55,-0.74,-1.19,-1.22,-1.43,-1.29,-0.49,-1.01,-0.12,2.08,-1.32
"ex4071",-0.51,-0.11,-0.61,-0.45,-0.00,1.73,0.91,0.35,2.49,0.82,4.54,4.01,3.31,4.06,4.54,4.48,1.91,0.97,2.22,0.44,0.20,0.67,0.00,0.45,0.67,1.10,2.87,1.23,0.56,-1.51,0.01,-2.17,-0.87,0.82,-0.98
"ex4072",0.33,1.16,-0.21,2.90,4.63,6.39,5.39,5.27,4.56,4.18,1.57,1.60,1.02,0.31,0.73,0.54,2.45,-0.70,-0.58,1.37,1.11,-1.84,-0.89,0.02,0.28,0.10,-1.39,-0.67,1.63,0.96,0.48,2.29,-0.15,0.27,-1.13
"ex4073",0.16,0.07,-0.26,1.37,-0.49,-1.03,-2.97,0.20,-1.15,2.54,1.53,1.77,3.26,5.66,8.72,4.82,3.95,1.56,3.03,1.59,1.54,-0.99,0.86,-1.68,-1.54,1.26,-0.54,-1.28,-0.45,0.05,0.45,-0.03,1.80,0.85,2.13
"ex4074",0.33,-0.02,0.75,-0.70,2.37,1.28,2.81,3.09,3.83,5.02,6.34,4.72,5.02,2.66,2.27,1.35,0.90,1.02,1.22,-0.06,0.82,-0.61,1.09,0.96,0.72,-0.97,-0.18,-0.11,-1.11,-1.02,-0.48,-2.47,0.41,-0.95,0.62
"ex4075",0.07,0.50,2.16,0.94,-0.03,1.24,2.60,3.22,4.29,5.07,6.10,5.27,2.58,3.75,1.18,1.27,-0.26,0.84,-0.21,0.75,1.04,0.33,-0.16,-1.24,1.37,1.88,0.24,0.60,1.55,-1.19,1.02,0.20,0.05,-1.47,0.52
"ex4076",1.78,1.49,0.27,0.57,-0.73,0.79,1.90,1.64,3.51,3.53,6.35,5.31,4.01,4.68,4.07,1.36,2.24,1.51,-0.49,2.53,2.00,0.27,-1.74,0.70,0.64,2.18,-2.35,0.97,-0.03,0.05,0.35,-1.25,1.79,-0.06,-0.81
"ex4077",1.16,-0.90,-0.03,1.45,-2.25,-0.15,-0.19,1.02,4.17,3.73,4.35,6.06,2.79,4.47,1.10,1.97,-0.14,0.55,0.44,1.27,1.23,0.08,1.16,-1.08,-0.50,-0.03,-0.85,-0.72,2.08,-0.16,-0.48,0.09,0.17,1.23,0.40
"ex4078",-2.04,0.45,0.39,0.63,-2.67,-0.13,2.46,1.08,1.72,5.73,6.24,3.35,4.18,3.94,4.28,1.32,0.60,2.74,1.03,2.21,1.50,-0.20,-0.12,0.78,0.75,0.74,0.10,0.86,0.59,2.45,-0.59,1.73,-1.08,-1.06,1.39
"ex4079",1.48,-0.51,1.39,1.75,2.55,4.15,2.71,3.79,2.84,2.39,0.53,3.70,1.42,2.18,5.22,1.36,3.21,1.69,1.09,-0.07,-0.74,0.23,0.19,1.71,1.54,-0.18,-0.81,0.24,-0.99,-0.35,0.08,0.13,-0.84,-1.55,-0.89
"ex4080",-0.63,1.47,-0.90,-0.04,-0.02,2.07,0.37,0.99,4.93,5.39,5.11,2.60,3.14,4.25,1.14,1.53,1.19,1.48,2.61,-0.54,-0.80,-1.11,0.60,-1.15,-0.71,0.13,-0.05,-0.07,-0.61,0.28,1.78,-0.26,0.86,-3.13,-1.08
"ex4081",0.03,0.78,-0.62,0.00,-2.71,-0.47,-1.37,-0.23,-0.65,0.64,0.37,4.03,4.21,3.38,5.86,4.92,5.47,2.10,2.77,2.50,0.05,-0.62,0.86,-0.61,-1.48,0.61,-0.23,0.36,-0.39,-0.15,1.65,-0.91,0.74,-0.59,-0.01
"ex4082",-1.33,0.98,0.76,2.22,1.11,2.06,-0.27,3.61,2.01,1.02,2.53,2.39,3.36,3.92,4.20,4.55,2.23,2.58,2.25,-0.20,-0.60,0.22,-0.66,-1.31,0.03,-3.07,1.29,-2.49,-0.99,0.76,-0.34,0.77,-0.64,-0.13,1.78
"ex4083",0.91,0.82,-0.89,-0.30,0.14,-0.33,0.97,3.40,3.71,4.29,6.02,3.76,4.05,2.74,1.35,-1.36,-1.26,-0.47,0.25,-0.29,0.68,-1.11,0.13,-1.38,-0.23,0.35,-1.12,-0.10,-0.10,-0.62,1.52,0.49,0.70,-0.02,0.07
"ex4084",0.61,0.61,-0.47,1.05,5.59,4.74,5.44,4.08,4.04,2.63,0.62,0.30,0.62,0.22,-1.05,0.51,0.75,-0.83,-0.74,-0.71,-0.32,-0.21,-1.38,-0.08,1.03,0.87,-0.35,-2.64,1.29,0.31,2.90,-0.34,-0.29,0.99,-1.03
"ex4085",-0.49,1.09,-0.92,0.01,1.60,2.41,3.31,3.26,3.13,5.24,5.86,6.00,2.23,2.62,1.85,0.83,1.64,1.31,0.47,-0.14,-1.04,-0.72,-0.28,-1.74,2.13,-1.18,-1.10,0.72,-0.48,1.06,0.30,-0.18,0.37,-0.53,0.96
"ex4086",-1.34,0.31,0.36,-0.10,0.04,0.29,-1.21,-0.85,1.03,2.43,3.84,3.60,3.76,5.23,6.43,3.65,3.67,1.98,1.48,-0.20,-0.20,-0.17,0.77,1.08,-0.64,-1.73,0.84,1.17,-0.38,-0.29,-1.39,0.54,-0.02,1.04,-1.95
"ex4087",0.21,0.88,0.47,1.98,2.22,1.88,3.05,2.21,1.51,1.94,0.74,3.07,1.21,4.02,1.96,2.85,2.51,4.54,2.19,0.55,-1.80,-0.04,-0.41,0.92,-2.29,-0.83,-0.04,-0.64,0.05,-2.15,0.75,-0.77,0.84,-0.50,-0.10
"ex4088",0.40,-0.57,-0.86,0.26,0.48,1.49,-1.00,2.00,3.51,5.98,4.69,4.69,3.33,3.00,1.44,0.37,1.10,-0.96,1.35,0.05,1.10,2.27,-0.52,-1.24,-0.26,0.11,-0.32,-0.74,0.22,0.81,-0.20,2.31,-0.79,1.10,-0.44
"ex4089",-0.76,2.08,-0.79,1.25,0.12,0.05,1.35,1.31,1.58,2.85,2.11,2.54,1.58,3.99,4.13,6.34,2.60,1.59,2.66,1.58,0.54,-2.10,0.76,0.03,0.77,-0.31,-0.20,-1.90,-0.39,0.60,0.54,0.62,-0.39,0.03,0.94
"ex4090",-0.38,0.06,2.23,-0.49,-0.57,3.27,1.22,4.60,4.35,4.99,6.34,3.44,2.45,3.18,1.91,1.74,0.12,0.27,0.59,1.53,0.16,-0.38,1.20,0.35,-0.24,-0.55,-0.32,-0.80,0.81,-0.21,-0.59,-0.14,-0.30,-0.43,-1.23
"ex4091",0.56,-0.94,1.13,-0.19,0.44,0.23,0.38,-0.34,1.07,0.94,4.56,4.10,5.58,3.92,4.78,5.17,2.96,2.91,0.78,2.09,-0.51,0.21,-0.64,1.87,0.05,1.68,-0.72,1.28,0.28,0.03,-1.24,1.02,-1.78,0.45,0.20
"ex4092",-0.19,1.84,1.31,0.92,1.04,2.88,4.54,4.27,3.05,4.22,4.71,3.61,3.68,-0.53,0.70,-0.93,1.56,-0.30,1.83,0.19,0.44,-1.31,1.33,0.98,0.90,0.75,-1.50,1.41,-1.17,-1.43,-0.68,0.53,1.26,-0.95,0.23
"ex4093",-0.58,0.14,1.80,3.29,3.38,4.94,5.39,4.06,3.50,2.66,1.34,0.70,1.20,1.91,-1.03,1.02,1.29,1.14,0.82,-0.56,0.53,1.36,-0.11,-0.79,-0.58,-0.14,-1.00,0.93,0.07,0.90,1.62,-1.87,-1.12,0.50,-0.02
"ex4094",-0.49,0.21,-0.25,0.35,0.23,1.86,1.57,2.12,2.98,5.21,4.69,4.46,3.74,3.15,3.23,3.21,1.69,-0.41,0.17,0.17,-0.01,-0.13,0.75,-0.14,-0.22,-0.34,0.25,0.71,0.20,-0.88,-1.06,-0.95,0.24,-1.25,-1.58
"ex4095",0.80,0.76,-1.31,0.84,-0.74,2.11,1.12,3.21,1.94,4.11,5.74,3.84,4.16,3.32,3.04,2.25,0.09,-0.03,-1.27,-1.11,-0.34,-1.32,1.91,0.82,0.87,1.53,-0.82,-0.67,0.26,-0.31,-0.41,0.61,-0.61,1.94,-0.48
"ex4096",0.06,0.71,-0.51,0.16,2.67,-1.58,2.32,2.78,3.11,2.37,3.14,4.14,2.90,3.02,4.57,3.87,1.72,2.91,0.58,1.91,-0.30,0.53,0.76,1.36,-1.18,0.57,1.00,0.92,1.26,-1.01,1.04,-0.22,-1.12,-1.45,0.55
"ex4097",0.27,0.64,2.36,0.52,-0.33,-0.17,1.05,1.05,-0.04,2.90,2.42,3.20,4.35,4.33,5.45,3.12,2.00,4.09,2.54,0.22,-0.68,1.59,-0.64,-1.01,-0.23,-0.06,-1.37,0.02,0.03,0.27,-0.20,0.59,-0.39,0.94,0.46
"ex4098",0.00,0.27,0.43,0.23,-1.86,2.12,-0.12,-0.08,1.13,1.52,3.52,2.97,4.78,5.75,3.85,4.39,3.01,3.77,0.37,1.32,0.24,0.12,2.18,0.79,1.05,-1.26,-0.54,-0.67,-0.25,0.64,-0.77,0.06,1.10,0.22,0.15
"ex4099",-0.03,-0.33,0.33,0.89,3.75,2.48,2.67,4.08,2.59,3.21,5.74,5.44,1.09,2.03,1.06,0.84,-0.32,-0.66,0.97,-0.40,0.34,-0.27,-0.05,-1.82,0.99,-0.20,-1.66,-1.00,1.69,1.70,-0.78,0.02,-0.28,0.88,1.54
"ex4100",0.05,0.87,2.30,2.14,4.03,4.53,6.84,5.23,4.38,3.47,2.33,1.84,-1.04,0.15,1.55,-0.22,0.40,-0.07,-0.74,1.16,-0.92,-0.02,-1.18,-1.48,-0.20,0.93,1.58,0.35,1.25,-0.19,1.50,0.01,0.56,-1.26,-0.54
"ex4101",-0.17,1.57,1.58,3.36,3.80,6.00,6.58,4.72,4.25,2.76,1.65,1.41,-1.49,-0.10,0.89,-1.30,-0.31,1.11,-0.63,-1.22,-1.69,1.03,-0.33,0.87,-0.96,1.02,0.78,-0.24,0.14,-0.53,0.10,0.46,-0.17,-1.12,-1.41
"ex4102",0.09,0.39,1.30,2.97,1.70,4.67,5.10,2.91,3.23,1.45,-0.07,1.38,1.30,0.48,1.88,0.98,2.75,-0.25,0.37,0.36,1.00,-0.87,-0.22,0.30,-0.30,0.15,-1.11,-0.31,0.09,0.90,-0.29,0.31,-1.76,-0.21,-1.03
"ex4103",0.19,1.02,2.56,3.55,1.85,5.16,4.75,4.41,4.27,2.97,1.62,1.52,-0.32,-0.12,2.50,0.39,0.82,0.24,-0.28,1.50,-1.28,0.20,-1.11,1.25,0.44,1.23,-0.62,-0.16,0.58,-0.52,0.98,-0.56,-0.29,-2.54,0.18
"ex4104",-1.39,2.37,-0.56,0.27,0.30,-0.42,1.17,0.57,2.70,3.62,4.41,4.26,3.93,3.64,3.97,3.37,1.55,1.38,0.63,1.83,0.95,1.12,0.00,0.01,1.46,0.71,-0.11,-1.63,0.51,2.55,0.12,0.90,0.07,-2.23,0.83
"ex4105",-1.50,1.73,-0.75,0.73,1.01,0.78,1.23,1.05,0.93,1.39,4.47,2.25,5.17,2.24,3.51,3.99,3.65,3.99,-0.29,-1.50,-0.27,-1.38,-0.51,-1.23,0.45,-1.03,0.44,0.89,0.04,0.86,-1.44,-0.72,1.43,-1.78,-0.69
"ex4106",-1.12,1.42,2.46,2.13,4.22,5.36,5.06,3.96,3.60,2.76,1.56,0.05,0.50,1.80,1.99,2.44,0.88,0.65,-1.51,4.00,0.85,0.37,-0.56,-0.31,0.69,-2.34,0.31,0.85,1.07,1.28,1.09,-1.72,-1.65,-0.11,-0.82
"ex4107",1.42,1.97,-0.01,0.08,-0.62,-2.15,0.69,2.27,3.23,1.53,3.35,3.56,2.40,1.21,6.24,3.09,2.96,2.58,1.95,-1.10,-0.35,-0.07,0.33,-1.65,-0.11,-1.66,-0.82,1.06,0.12,-0.87,0.32,0.36,-0.41,0.25,-0.94
"ex4108",1.95,0.24,0.83,1.76,3.46,0.27,3.69,2.77,2.26,0.41,2.07,3.20,2.45,2.42,4.87,3.65,1.94,3.25,0.50,0.43,0.54,1.69,0.93,1.17,1.56,-0.23,-0.48,0.55,-0.07,0.53,-1.31,0.43,0.13,0.74,0.05
"ex4109",1.42,-0.96,1.76,-0.98,-0.72,1.73,1.25,0.54,1.61,2.06,2.84,5.86,3.85,2.19,4.39,5.05,2.19,0.75,0.46,-0.01,-0.92,0.95,1.49,-0.08,-1.21,-0.83,-2.08,2.88,0.98,0.73,-1.13,-0.83,-0.13,-0.87,0.13
"ex4110",-1.30,-1.51,-0.53,-0.49,-0.98,0.28,-0.26,-1.12,1.85,0.45,2.26,3.89,3.58,5.08,5.41,3.11,4.29,2.77,2.77,1.76,0.37,1.22,-0.89,1.84,0.91,1.59,-1.23,-1.00,0.99,-0.92,-0.76,0.98,1.42,0.80,1.59
"ex4111",-0.05,1.48,0.15,2.57,3.11,3.42,4.25,3.34,3.62,0.35,0.68,3.48,2.50,2.30,3.29,0.63,1.01,3.02,1.75,-2.12,0.27,0.26,-3.34,0.37,-0.15,0.91,-1.60,-0.94,0.47,-1.13,-0.33,0.27,-0.17,1.02,0.14
"ex4112",-1.64,-1.08,0.08,0.43,-0.05,1.56,1.04,1.13,0.15,1.18,0.61,3.01,3.02,2.52,4.07,4.30,3.77,1.65,2.64,1.60,0.72,0.23,-0.42,-0.43,1.06,1.12,-0.53,-0.76,2.16,-1.32,-0.49,1.01,1.10,0.15,0.27
"ex4113",0.01,-0.29,0.98,-0.54,-0.55,1.93,2.22,1.29,1.50,3.76,5.22,3.68,3.76,3.98,3.09,4.11,1.47,0.55,0.68,-1.25,1.22,1.97,-0.11,0.71,0.80,-1.78,1.54,-0.88,0.13,0.11,-1.01,1.07,0.62,-0.09,-0.73
"ex4114",-0.43,1.42,2.88,0.00,2.29,2.28,2.39,2.77,1.67,3.71,1.43,1.58,2.16,3.39,1.19,3.48,2.63,2.42,2.66,1.25,-1.17,0.31,-1.95,0.68,0.04,-1.44,0.83,-1.71,0.09,0.16,-0.31,0.05,0.76,0.54,-0.17
"ex4115",-0.53,0.81,0.26,-0.76,0.75,1.00,1.63,0.12,0.32,-0.02,2.25,3.27,4.21,5.07,5.54,5.11,5.96,2.49,1.71,2.85,0.29,-0.73,0.33,-0.56,1.78,-0.41,1.02,-1.26,1.70,-0.45,-0.88,0.51,1.44,-0.75,-0.34
"ex4116",-0.64,0.30,-1.35,-1.60,0.43,0.96,0.18,0.61,2.12,0.68,2.52,3.83,3.50,3.03,4.14,4.47,4.04,1.74,0.29,-0.05,0.15,-0.42,0.34,-0.07,-1.01,-0.09,-2.13,-0.90,0.25,-0.14,-0.58,0.24,0.33,0.83,-1.80
"ex4117",-0.23,1.28,2.16,0.83,0.21,1.45,1.46,1.08,-0.26,-0.02,2.10,0.33,1.44,3.76,4.86,3.38,3.29,2.06,0.90,0.88,0.25,-1.08,-0.17,-0.41,-1.39,1.29,-0.30,0.24,-0.52,-0.82,1.61,1.58,0.23,1.56,-0.37
"ex4118",0.99,0.25,0.54,-1.76,0.78,-0.01,1.74,2.34,3.89,5.54,5.14,5.60,3.42,3.75,0.53,3.43,0.23,1.12,-0.21,0.86,0.22,-0.64,-1.47,0.19,1.18,-0.43,0.60,-1.90,0.29,0.49,0.20,-1.41,0.96,0.61,0.19
"ex4119",0.05,0.66,-0.45,2.65,0.62,1.36,1.52,3.57,4.59,4.30,6.06,5.30,4.19,1.10,2.59,-2.24,-0.31,0.64,0.39,-1.26,0.70,-0.44,-0.71,-1.52,-0.10,1.96,-0.11,-0.43,0.84,0.57,0.12,1.23,-0.90,-0.16,-1.30
"ex4120",0.37,1.29,1.07,1.72,0.78,2.00,4.11,2.03,3.37,2.54,0.54,1.77,1.31,2.46,1.49,1.69,1.82,1.20,3.12,-1.27,-0.69,-0.08,0.37,-0.35,-0.18,0.63,1.54,-1.07,-0.64,0.64,-0.18,0.36,-1.22,-1.28,0.37
"ex4121",-0.45,-1.26,0.65,1.28,3.64,3.53,3.28,4.25,0.85,2.22,1.05,3.00,0.75,1.72,4.04,1.50,2.38,-0.24,-0.16,1.70,2.14,0.40,0.69,-2.19,-0.07,-0.63,-1.02,-0.31,-0.50,0.12,0.36,0.44,1.46,1.45,1.00
"ex4122",0.52,0.25,0.82,2.66,2.88,2.43,0.75,3.94,2.71,2.92,2.39,1.73,1.50,2.94,2.59,0.92,1.91,1.80,2.23,0.58,2.29,1.61,1.47,0.64,-1.71,1.12,0.77,0.39,-0.49,1.25,-0.17,1.93,-0.27,0.22,-1.12
"ex4123",-0.28,0.30,-0.11,0.05,-0.96,0.61,0.59,-0.03,1.65,4.29,3.88,5.57,5.57,3.75,2.29,3.13,2.31,0.27,0.55,0.52,-2.28,0.22,1.28,0.05,-0.12,-0.52,0.28,0.05,-0.72,1.67,-0.64,0.35,0.43,-0.28,-1.36
"ex4124",-0.41,-0.10,-1.69,-0.14,0.57,0.91,1.64,0.91,2.75,4.29,3.87,3.14,4.22,2.91,4.89,2.68,2.52,0.75,-0.34,0.48,0.15,2.14,0.39,0.14,-0.39,-0.15,-0.34,0.30,0.05,0.49,0.08,-0.93,0.42,-0.48,-1.26
"ex4125",-1.74,0.24,0.12,0.69,0.22,0.47,0.74,1.87,5.59,3.39,5.00,5.63,3.89,4.44,1.13,2.26,2.71,1.65,0.27,-0.48,-0.51,0.18,0.43,-1.47,0.10,0.90,1.23,0.47,-0.28,-1.37,0.59,0.60,0.69,1.60,-0.14
"ex4126",-1.27,-0.86,0.10,0.84,-0.32,-0.38,-0.22,1.27,1.00,1.24,3.26,2.60,3.19,4.60,5.42,5.53,4.69,1.25,0.61,2.02,1.09,0.09,0.13,-2.01,-0.76,-1.66,0.48,-0.21,-0.04,-0.66,1.16,-1.15,1.09,-0.71,0.49
"ex4127",-0.72,1.81,1.49,0.99,2.93,5.55,5.13,3.97,3.14,5.30,4.27,1.31,0.53,2.25,0.74,0.21,-0.05,0.85,-0.54,-0.31,1.49,-0.21,-2.03,0.46,0.17,-1.18,1.10,-0.58,1.18,-0.23,-0.05,1.04,1.43,-0.77,0.05
"ex4128",0.21,-2.38,0.16,-1.16,0.50,2.06,2.04,3.08,2.53,5.54,5.97,3.72,5.32,1.54,3.85,2.67,-0.77,-0.47,-1.39,1.20,0.99,0.25,-0.60,-1.59,0.47,0.14,-0.11,-1.24,0.05,0.58,0.53,1.06,0.63,0.03,1.49
"ex4129",-0.17,0.80,1.70,2.29,3.45,5.97,5.66,6.13,1.38,3.31,2.48,1.50,0.94,0.94,2.35,0.16,-1.67,0.39,-0.63,0.51,-0.19,0.41,0.68,-0.64,1.60,-0.09,-1.41,0.29,1.81,-1.68,-2.15,-0.64,-0.98,0.64,0.75
"ex4130",-0.46,-0.33,0.06,-0.98,-0.55,0.63,1.87,2.58,2.35,5.28,3.78,4.17,3.83,1.16,3.04,2.35,-1.28,0.27,-0.09,-0.33,-0.41,0.25,-0.73,0.44,0.64,-0.10,-2.13,0.86,0.14,0.13,-0.84,1.47,0.63,1.07,0.49
"ex4131",-0.05,2.01,0.98,-0.07,3.05,2.20,4.36,3.74,4.38,3.42,4.72,0.62,2.28,1.02,-0.58,1.10,-1.02,-1.27,1.44,0.49,0.46,1.63,-0.36,-2.07,0.05,-0.15,0.34,-0.79,1.61,-0.94,0.54,1.41,0.25,-0.57,-0.21
"ex4132",0.49,1.23,0.22,0.42,1.28,1.01,3.31,4.85,1.42,5.57,5.04,2.86,2.32,3.13,1.67,-0.08,0.10,-1.10,-0.99,-0.69,-2.32,0.67,-0.04,-0.40,-0.55,-0.60,-0.86,-1.52,2.39,1.93,-0.26,0.88,1.13,1.77,-0.03
"ex4133",-0.06,1.29,1.28,1.37,4.39,2.32,3.12,3.58,2.18,2.87,1.79,0.06,1.71,2.16,0.66,-0.62,-0.48,0.01,0.30,-0.57,0.83,-0.23,1.50,0.86,-0.12,-0.43,-1.63,-0.67,-1.78,-0.30,0.50,1.23,-0.39,-0.60,-0.61
"ex4134",0.62,0.88,2.90,2.76,2.65,5.99,6.11,4.07,5.59,1.54,4.21,1.59,1.76,-1.23,1.49,0.38,-0.56,-0.68,-0.82,0.63,-1.04,-0.17,0.28,-0.26,2.85,1.32,-0.88,-0.66,0.18,-0.54,-1.86,-0.69,0.26,0.96,-0.21
"ex4135",0.38,0.47,-0.30,1.20,2.83,1.91,1.62,3.91,4.90,4.91,4.41,3.73,2.83,1.84,1.71,0.09,-0.28,0.54,0.42,0.01,2.68,-1.88,-2.16,0.01,-1.22,0.01,-0.97,1.19,-0.71,-1.57,0.75,0.52,-0.18,-1.06,0.39
"ex4136",-1.42,0.15,0.38,1.24,-0.24,-0.07,-0.50,2.10,0.09,2.41,3.48,4.90,3.39,5.00,4.52,3.58,1.21,0.84,1.68,1.57,0.25,0.22,0.23,-0.34,-1.09,-2.11,-0.19,1.42,-0.63,-0.47,-0.20,0.34,0.54,-0.95,2.04
"ex4137",-0.72,1.30,2.43,2.52,2.33,3.35,5.41,2.38,4.83,1.01,2.74,2.84,1.62,1.69,1.51,1.91,0.55,-0.82,1.49,1.42,-0.09,-1.92,-0.04,-0.26,1.40,0.73,2.06,0.36,-0.81,0.71,-0.64,0.55,0.24,0.60,-0.74
"ex4138",0.82,0.29,1.74,1.40,0.62,4.19,4.13,4.59,4.70,4.65,3.41,3.52,1.38,0.21,0.58,0.94,0.11,-0.68,0.08,0.31,0.28,-1.62,0.44,-0.30,0.01,-0.22,-0.10,-0.92,-1.06,0.53,-0.39,-0.24,-1.05,0.74,2.54
"ex4139",-0.38,1.12,1.14,3.09,2.57,3.27,4.27,5.44,6.33,2.83,4.15,1.03,-0.30,0.97,1.49,0.00,1.30,-0.05,0.61,0.98,-0.73,-0.74,-0.17,0.14,-0.67,0.71,0.14,0.88,-1.02,0.22,1.14,0.02,-0.69,0.25,1.48
"ex4140",-0.63,-1.32,0.08,0.44,-1.54,-0.65,-0.52,1.51,0.18,1.18,2.83,4.38,5.04,5.29,5.41,3.93,4.67,2.63,1.99,1.45,0.59,2.06,-0.69,0.10,-0.61,-0.22,0.95,-1.44,-0.65,-0.42,1.41,-0.27,1.84,1.09,-0.12
"ex4141",1.12,-1.67,1.15,1.39,0.02,0.62,1.65,3.01,4.04,3.29,6.52,5.64,3.38,2.17,2.44,1.52,1.01,0.18,-1.25,0.43,-1.49,-0.15,-2.00,-0.86,-0.55,-0.44,1.19,0.83,0.46,0.17,0.22,-0.62,-0.58,-0.02,0.79
"ex4142",-1.50,2.03,2.83,2.27,1.64,2.76,4.67,1.52,4.57,1.61,0.97,2.95,1.54,2.41,2.46,2.00,-0.37,3.76,0.57,0.72,0.35,-0.90,0.62,-0.58,1.08,-0.75,1.52,1.79,-0.01,0.58,-0.09,-0.80,-1.06,0.01,-0.26
"ex4143",-0.54,-0.21,0.51,-1.65,-0.84,0.49,0.83,0.19,0.38,-0.17,-0.66,4.53,4.62,5.47,5.35,5.59,3.79,2.85,1.06,1.35,-0.45,0.96,-0.27,-1.51,1.47,1.21,0.67,-0.00,0.48,-2.21,0.08,-1.09,2.01,0.39,0.90
"ex4144",1.04,0.38,2.08,0.88,2.41,1.42,1.94,4.36,4.64,3.91,5.64,4.09,3.18,1.63,2.89,1.06,-0.87,1.08,1.67,-1.61,-1.33,0.06,-0.14,0.69,0.96,-0.47,1.45,1.22,-0.03,-0.45,-0.30,0.32,-0.04,1.84,0.84
"ex4145",0.34,-0.10,-0.01,-2.40,0.37,0.31,2.27,0.43,-0.20,2.73,1.52,2.91,3.12,5.64,6.05,4.02,2.98,2.73,2.65,1.06,1.01,-0.54,0.01,0.92,0.29,0.85,0.30,0.52,-0.74,1.36,1.09,0.25,1.15,-0.85,1.35
"ex4146",-0.83,-0.35,-0.05,1.20,1.39,-0.80,0.38,2.74,2.48,6.07,5.37,3.70,1.79,3.53,3.23,2.39,-2.58,-0.68,0.84,-0.23,0.63,-0.58,-0.07,-0.81,0.68,0.85,0.15,1.70,-0.14,-2.72,-1.70,1.46,-0.08,-1.38,-0.16
"ex4147",-0.59,-0.27,1.08,1.12,0.66,3.42,2.67,2.03,4.36,2.51,2.46,0.54,2.92,3.31,2.80,3.22,1.02,0.37,-1.98,1.91,0.86,0.99,-1.85,-0.26,-0.71,0.74,0.05,-0.21,-0.22,-0.53,0.32,1.05,0.36,0.07,0.54
"ex4148",0.09,-0.91,0.49,2.56,1.16,1.21,2.18,4.42,3.96,5.25,4.60,5.59,2.05,-0.06,1.31,2.24,-0.66,0.89,-0.25,1.05,-2.38,0.07,0.09,-0.36,-1.55,0.85,-1.34,0.53,-1.52,-0.48,0.37,-0.45,-0.96,0.38,0.71
"ex4149",1.14,1.18,-0.11,-0.98,0.31,1.17,-0.76,2.67,3.21,2.72,2.92,4.60,3.93,5.95,2.76,3.58,3.07,1.92,0.07,0.38,0.30,1.68,-0.73,-0.31,-2.04,-0.89,1.25,-0.52,-0.68,0.30,0.35,-0.86,1.63,0.45,-0.16
"ex4150",1.66,-1.14,2.42,-0.71,1.32,1.76,1.79,3.75,2.49,5.19,6.91,4.14,4.06,3.21,2.54,1.41,1.07,0.01,-1.86,-0.47,-2.37,0.02,1.26,0.70,1.79,0.94,-1.13,-0.06,-0.28,1.53,-1.31,-0.54,-1.38,0.74,0.75
"ex4151",-0.86,0.65,-0.41,2.19,0.28,2.85,2.80,4.03,5.17,5.75,5.46,4.96,1.81,1.38,1.19,1.73,0.70,0.82,1.16,0.05,0.83,2.06,0.93,-0.30,-0.35,0.06,-0.00,3.23,0.06,-1.15,-0.34,-0.30,-0.38,0.47,1.00
"ex4152",-1.19,0.04,-1.09,-2.05,-0.75,0.46,2.45,2.34,1.10,2.05,2.02,4.88,4.93,5.43,6.06,3.03,3.64,2.39,1.98,-0.07,-0.32,-2.12,-0.84,-0.92,-0.55,-1.03,0.08,0.89,0.50,-1.84,1.19,1.88,-1.77,-0.59,1.34
"ex4153",-1.88,0.60,0.95,0.87,0.72,1.62,3.19,1.62,2.09,4.70,2.55,3.84,2.77,0.32,3.15,2.13,2.32,1.70,1.39,0.16,0.90,-0.00,1.05,-0.17,0.66,0.53,-0.65,0.07,0.55,-0.73,0.83,-2.08,-1.00,2.04,-2.05
"ex4154",-1.05,1.66,-0.96,3.48,2.53,2.64,3.77,3.64,2.30,1.68,1.52,1.79,0.54,0.04,2.20,2.37,2.94,-0.34,2.30,-1.60,-1.03,0.70,-0.34,2.16,-0.31,-0.86,-0.61,0.88,-0.43,0.30,1.79,0.04,-1.68,-1.61,1.32
"ex4155",-1.77,0.52,1.46,1.65,1.83,1.21,1.91,0.91,2.09,1.18,0.36,5.07,5.01,2.63,3.19,3.20,3.05,1.80,1.38,0.39,-2.17,0.51,0.21,-0.46,0.20,-0.07,-1.00,0.39,0.80,1.28,-0.48,1.42,-0.49,0.74,-0.49
"ex4156",-0.06,-0.34,-1.83,-0.66,-0.06,0.54,0.07,0.58,2.78,1.11,4.82,3.45,3.67,3.84,3.76,3.50,2.40,2.43,2.48,2.68,0.46,0.64,-0.08,0.01,1.59,1.17,-0.50,-0.01,0.42,1.58,0.30,-0.00,-0.86,-0.13,0.45
"ex4157",0.36,-1.50,0.15,2.51,0.94,2.00,0.20,2.69,1.47,3.40,2.09,3.73,3.86,2.18,4.78,4.82,2.80,3.49,2.44,2.24,-0.13,0.62,-0.37,-2.32,-1.24,0.79,-1.26,-0.64,-0.91,-2.29,0.20,0.01,-0.64,-0.29,-0.93
"ex4158",0.60,-0.28,1.41,-0.88,0.38,-1.24,0.29,2.21,0.43,1.79,5.36,4.16,4.50,2.99,4.37,1.96,3.00,0.73,1.75,2.79,-0.12,0.35,0.21,-0.22,1.79,-1.97,-0.08,-0.78,1.12,1.10,-0.40,-0.62,0.02,0.34,-0.91
"ex4159",1.21,-1.68,-0.41,-1.53,1.35,-0.38,1.35,1.00,2.01,2.20,3.49,5.52,4.09,4.75,5.58,4.13,2.74,2.30,0.21,0.04,0.76,-1.07,-0.06,2.06,-0.65,-0.96,0.88,0.67,0.19,0.65,-0.30,-1.08,0.95,0.46,-1.62
"ex4160",0.23,0.75,0.74,0.48,0.30,2.02,4.04,3.82,3.56,4.52,4.29,4.27,3.56,1.59,1.65,3.30,0.29,-0.97,0.35,-0.61,-2.44,-0.98,0.55,-1.28,0.10,0.55,-0.47,2.57,1.13,-0.77,0.57,-0.47,0.99,2.04,-0.46
"ex4161",-0.43,1.05,-0.29,0.68,0.16,1.37,0.68,0.59,2.78,2.91,4.85,5.58,4.26,4.99,3.71,2.50,1.58,1.82,1.83,-0.54,-1.14,-0.93,-1.43,0.31,0.07,-1.30,0.43,-0.34,0.95,1.55,0.13,0.12,-1.28,-0.29,-0.66
"ex4162",0.56,0.96,1.50,-1.15,1.07,-0.88,1.85,1.76,2.36,1.81,2.66,3.94,3.77,5.52,3.59,4.53,2.56,2.34,2.37,1.17,0.81,-0.09,0.24,-1.72,0.80,0.40,-1.72,1.41,-0.90,-0.81,-0.61,0.49,0.58,-0.16,0.80
"ex4163",1.37,-0.69,0.10,0.47,0.54,-0.27,-1.34,1.90,1.18,2.24,2.85,4.26,3.61,4.04,2.65,2.39,1.40,3.12,0.53,-0.81,2.17,-0.83,-2.64,0.24,1.08,-0.32,0.29,0.33,1.00,-0.02,0.87,-0.96,-0.55,0.03,0.97
"ex4164",0.11,0.35,1.22,1.89,0.63,0.31,2.03,0.28,3.37,2.94,5.86,3.52,4.25,4.36,3.46,4.11,1.35,0.29,2.02,2.06,-1.74,-0.08,0.37,-0.88,0.52,0.23,-0.50,0.04,0.84,0.71,-0.30,-0.49,-0.64,1.28,1.76
"ex4165",0.95,1.17,0.24,0.77,-0.68,1.12,1.03,1.59,1.98,1.04,4.25,4.80,5.05,5.86,4.30,2.72,1.96,1.78,0.68,1.40,-1.60,-1.49,0.49,-0.73,0.04,0.02,-2.01,0.43,-0.22,0.57,0.36,0.07,0.31,0.51,-0.11
"ex4166",-0.74,-0.08,-1.19,1.16,-0.68,0.65,0.80,2.23,1.75,2.35,5.06,4.15,3.31,3.79,3.76,1.23,2.46,0.90,2.73,0.10,0.39,-0.57,0.78,-0.43,-2.21,0.36,-1.00,-1.20,-1.58,1.34,-1.13,-0.26,-2.22,0.25,0.71
"ex4167",-0.27,1.05,-0.22,2.14,3.23,2.84,2.14,2.48,2.64,2.79,0.74,0.87,1.99,3.02,2.83,1.40,2.33,1.43,2.22,0.62,-1.07,-0.06,-2.06,1.16,1.64,-1.41,0.17,0.27,-1.07,0.57,-0.89,0.30,-0.88,0.22,-0.59
"ex4168",-0.02,1.32,3.91,3.36,5.78,5.77,4.21,4.06,2.50,5.38,1.64,0.35,-0.97,1.77,-1.02,-0.62,0.31,-0.61,0.87,2.25,-1.62,0.15,-0.44,-0.06,-1.19,0.48,1.10,-0.71,0.06,-0.92,-0.93,0.91,1.03,-0.10,0.12
"ex4169",1.59,-0.68,-0.78,-1.53,0.85,-1.49,0.85,-0.78,-0.44,0.51,0.67,4.55,3.31,4.98,4.98,4.53,3.34,3.01,3.26,1.27,-1.94,-0.34,-0.78,-0.56,0.47,-1.18,-1.28,1.72,-0.57,0.71,-1.24,-0.60,1.06,-0.71,0.91
"ex4170",-0.02,1.22,0.32,1.04,1.33,2.60,2.51,3.84,4.75,4.93,5.90,5.81,3.32,2.76,0.62,0.19,0.15,-0.58,-0.63,0.58,-1.31,1.10,1.18,-0.78,1.23,0.69,0.93,1.80,1.11,1.55,0.36,-0.07,0.94,-0.04,1.97
"ex4171",0.49,-1.53,-0.05,2.50,0.08,0.87,3.03,3.02,2.72,2.86,2.11,3.84,2.66,5.12,4.16,4.22,2.32,0.40,-0.35,0.46,-0.42,-0.58,0.57,2.56,-0.93,-0.04,0.05,1.81,0.33,0.47,-0.11,0.14,-1.26,-0.13,1.01
"ex4172",0.55,0.56,2.42,1.83,3.84,5.04,6.61,4.44,4.47,3.58,4.01,0.22,-1.11,-0.69,-0.61,-1.76,-1.33,0.74,-2.44,-0.86,1.34,-1.55,-0.94,-1.17,0.26,-0.31,-0.21,-0.50,0.59,0.86,2.21,0.41,-1.39,-1.14,1.18
"ex4173",0.23,-0.92,-1.94,-0.07,-0.22,0.43,0.66,-1.54,0.92,-0.75,3.05,4.04,4.63,6.20,6.04,3.63,3.29,1.36,4.44,0.71,-0.17,0.66,-1.93,0.50,0.58,-0.72,0.42,-2.66,-0.30,-0.80,0.15,-1.27,1.49,-0.96,-0.74
"ex4174",0.88,0.56,0.47,-0.15,-1.11,3.61,2.13,3.30,2.79,4.46,5.50,4.84,4.44,1.81,1.05,-1.42,-1.03,1.34,-0.35,1.12,0.81,0.48,1.87,-1.30,0.73,2.33,1.25,0.25,0.20,2.29,1.15,-0.10,0.49,0.44,-1.03
"ex4175",-0.68,-0.54,-1.61,0.20,0.32,2.09,2.10,1.03,1.47,1.23,3.88,3.14,3.13,4.37,5.69,4.37,3.26,2.36,1.75,0.96,-0.63,0.38,0.32,0.24,-0.57,-2.27,-0.98,1.62,-1.76,-0.28,1.23,0.06,0.56,1.05,1.00
"ex4176",0.10,0.11,0.32,0.79,-0.75,0.31,1.03,1.95,0.06,3.72,3.32,3.58,2.28,3.27,4.09,2.55,1.71,1.26,0.65,0.55,-1.47,-0.49,1.43,0.72,-1.70,-0.60,-0.69,1.01,0.39,0.50,-1.58,-1.20,0.09,0.24,0.26
"ex4177",0.74,0.11,2.82,4.64,2.89,2.95,3.46,2.74,2.30,2.28,1.64,2.52,0.10,1.24,2.39,3.84,0.94,0.61,1.37,1.31,-0.64,0.26,0.93,0.94,-0.20,-0.26,-0.45,0.10,-0.67,1.42,1.60,0.78,-1.44,1.04,-0.22
"ex4178",0.20,1.07,2.81,1.38,0.93,1.46,3.46,4.23,3.94,5.20,4.76,3.45,3.56,1.19,1.03,1.61,0.52,0.82,1.11,-0.80,2.53,1.56,-0.09,1.00,-1.36,0.15,-1.49,-1.18,0.70,-0.08,-0.70,-0.29,-0.79,1.70,1.05
"ex4179",0.34,0.82,3.92,1.91,3.26,4.26,4.97,4.42,3.09,2.18,2.33,2.28,2.04,0.40,-0.75,1.67,0.67,-1.39,-0.22,0.45,-0.84,-0.43,0.35,0.80,-1.20,-0.51,-1.98,0.75,0.56,0.15,-1.20,0.10,0.78,0.76,-0.21
"ex4180",-0.16,-0.36,-0.19,-0.65,-1.59,0.86,-0.26,2.50,-0.20,1.31,2.55,2.50,4.78,5.13,5.14,4.99,4.50,6.05,3.35,0.98,0.23,-0.34,0.43,0.02,-0.16,-0.88,-0.10,1.48,-0.92,0.28,1.90,1.55,1.16,0.72,-0.84
"ex4181",0.20,-0.39,0.39,0.69,1.83,1.89,1.68,0.43,3.41,5.82,4.65,3.76,2.60,2.25,0.04,-0.05,0.53,-0.96,-0.38,0.23,-1.38,-1.63,0.42,0.09,0.46,-0.39,0.11,-0.63,-2.00,-0.07,0.16,0.15,0.25,1.15,1.59
"ex4182",-0.51,0.22,-0.31,-0.16,0.70,1.33,-0.42,0.24,1.54,4.12,4.52,3.77,1.63,3.88,3.96,3.02,1.40,1.48,0.09,-1.27,0.15,0.14,-1.13,0.81,-0.30,1.25,1.19,0.24,0.14,0.03,-0.01,0.61,-1.16,-0.37,-0.03
"ex4183",-0.05,-0.56,1.33,1.41,3.07,4.29,7.71,4.58,4.63,2.69,1.42,2.14,1.02,0.02,0.26,-0.36,0.44,0.36,-0.13,-1.23,-2.09,0.90,1.84,-1.02,0.26,-0.77,-0.05,0.33,0.19,0.31,-1.29,-1.45,-0.93,-0.21,0.18
"ex4184",1.60,4.25,0.93,3.33,1.97,4.58,4.10,3.59,3.18,4.06,4.03,-0.15,-0.09,1.31,-0.15,-0.30,-0.83,1.38,-0.00,-0.76,-1.17,-2.26,1.01,1.45,1.06,-0.97,-1.83,0.30,0.68,-1.64,0.40,-0.38,1.12,0.73,-3.29
"ex4185",-0.80,-0.60,0.11,2.92,2.77,2.93,3.93,2.18,4.69,3.62,0.13,2.87,1.76,1.13,2.22,1.50,1.50,0.52,1.03,-0.19,-1.42,1.44,1.56,-1.10,-0.09,-1.54,0.28,1.05,-0.20,-1.05,-1.64,-1.04,1.37,-1.68,-0.71
"ex4186",0.17,0.25,2.73,0.28,3.03,3.61,4.00,0.79,1.27,2.76,2.62,1.96,-0.41,1.87,3.96,2.12,0.29,2.31,0.90,0.61,1.45,-0.97,-1.45,0.67,-0.58,0.36,0.60,-1.53,0.61,1.78,0.65,-0.13,-0.76,-1.24,-0.49
"ex4187",0.08,0.13,1.33,0.71,0.11,1.12,0.06,0.21,-1.56,-0.30,3.07,2.13,5.24,5.40,5.83,3.56,5.01,3.39,1.61,1.62,-0.88,-0.58,-0.89,0.66,0.75,1.00,0.70,0.44,-1.02,0.61,-1.05,-1.42,1.04,-0.90,-1.11
"ex4188",0.52,-1.55,0.73,0.10,1.14,3.27,3.19,3.47,5.03,4.93,4.31,4.30,1.55,2.88,0.06,0.03,0.38,1.07,-1.22,-0.52,1.29,0.64,-0.74,-1.56,-0.05,-0.09,0.73,1.49,-0.20,-0.78,-0.30,-1.67,-0.35,1.58,-0.92
"ex4189",1.66,1.77,-1.17,0.72,0.16,0.96,1.54,2.19,2.99,2.03,4.06,4.39,3.10,4.79,4.49,4.50,2.03,3.62,0.98,0.81,-2.55,0.75,-0.27,-0.23,1.08,0.60,0.45,1.57,0.74,1.84,-0.28,0.63,0.07,-0.29,0.14
"ex4190",-1.59,0.37,0.57,0.09,0.80,1.93,1.69,3.09,2.90,2.40,4.38,3.52,3.21,3.46,3.94,1.04,1.16,-1.80,-0.26,-0.65,-1.09,-1.15,0.66,2.76,0.02,0.44,0.93,0.08,0.29,-0.28,-0.21,1.86,-0.22,0.42,-0.22
"ex4191",0.30,0.55,-0.13,-2.05,-0.45,-0.66,1.26,1.76,2.16,1.80,3.79,4.76,3.08,2.97,3.69,3.91,1.89,0.75,0.93,-0.50,0.76,0.37,-0.81,-1.41,0.66,-0.09,1.37,-2.02,0.15,0.69,1.39,1.87,1.08,0.58,0.80
"ex4192",-0.18,-0.99,-0.77,0.50,-0.06,0.11,2.21,2.30,3.78,3.77,5.39,5.22,3.96,1.88,1.05,-0.21,-0.12,1.83,0.84,-0.08,0.73,0.72,1.63,-0.20,0.19,0.15,-0.50,1.08,0.92,-1.76,0.73,-0.91,-0.49,1.07,0.69
"ex4193",-0.93,-0.67,0.40,-1.03,-0.11,-0.62,1.40,1.20,0.78,2.61,5.18,1.70,3.65,4.24,5.76,3.21,4.04,2.26,1.37,-0.58,-0.75,1.12,-1.23,0.28,-1.91,0.66,0.57,-1.08,2.04,0.41,1.30,1.84,-1.87,-1.08,2.57
"ex4194",0.11,-0.35,0.73,1.02,0.27,1.23,1.67,1.21,1.72,3.40,5.93,3.38,4.19,3.85,3.26,1.26,2.55,-1.15,-1.62,1.78,0.94,0.03,1.56,-0.59,1.18,-1.50,-0.68,1.96,-1.03,-1.40,-0.49,-0.90,0.50,0.51,0.64
"ex4195",0.42,1.15,1.93,3.48,4.02,4.10,5.85,4.32,2.59,3.57,3.98,0.85,1.40,-1.93,-0.88,-1.02,-0.76,-2.00,0.42,1.23,-0.17,0.08,-0.56,-1.07,0.64,0.26,1.09,0.75,0.03,-0.55,-0.24,0.34,-0.40,1.13,-1.52
"ex4196",1.72,0.13,0.31,2.23,1.42,3.36,3.17,4.23,2.99,4.25,4.31,4.51,2.26,1.79,0.10,2.22,-1.63,0.26,-0.15,-0.22,-1.05,-1.99,-0.08,2.17,0.02,-1.05,-1.01,-0.34,-0.88,-0.99,0.73,-0.30,0.69,-0.55,0.22
"ex4197",-0.36,0.21,0.49,0.59,-0.55,-0.86,2.37,-0.95,0.27,2.52,0.85,2.48,3.68,4.60,6.49,4.20,2.86,2.13,3.30,0.40,0.51,-0.84,0.04,-0.10,-0.73,0.68,0.17,-2.00,0.15,0.46,-0.63,1.79,-1.18,0.73,0.02
"ex4198",1.32,0.14,1.27,1.14,1.59,1.31,2.86,2.20,4.87,5.01,6.53,5.22,4.65,2.80,1.52,1.94,0.64,-0.04,0.71,-1.61,-0.78,-1.18,0.83,0.85,-0.51,-1.10,1.38,-0.42,1.14,-1.78,0.14,-0.11,-1.04,-1.32,-1.51
"ex4199",0.49,-0.26,0.07,0.40,0.61,1.38,0.35,0.00,-0.53,-0.69,1.30,3.50,5.62,4.81,5.82,4.55,3.45,2.21,3.03,0.92,-0.23,-0.54,-2.00,-0.28,-1.57,2.47,-0.39,2.23,-0.50,0.37,1.71,-0.20,0.11,0.55,-0.45
"ex4200",-0.83,1.27,0.86,2.62,3.02,3.17,4.97,5.09,3.80,3.06,2.69,2.18,1.39,-0.25,-0.10,-0.34,1.87,-0.40,0.68,0.80,-1.52,-0.96,0.24,-0.83,0.63,-1.07,0.38,-0.32,-0.37,1.62,0.48,0.66,0.97,-0.69,-0.31
"ex4201",-1.49,1.72,-0.03,1.82,4.21,4.84,5.76,4.87,4.41,4.68,2.35,1.63,2.22,1.38,2.76,1.15,-0.32,-1.06,-0.25,0.70,1.70,-0.07,-0.31,-1.04,0.95,0.20,1.30,-1.09,0.28,-0.89,-0.04,-0.48,0.19,1.66,1.20
"ex4202",-1.26,-0.08,0.76,-0.06,-0.49,1.56,2.27,0.81,0.47,1.52,1.98,4.18,2.61,6.46,4.24,3.30,3.62,0.86,0.52,1.31,-1.13,-0.11,0.84,-0.65,0.79,-0.24,0.22,0.08,1.29,2.17,0.31,0.29,1.83,1.90,-1.99
"ex4203",0.86,0.96,1.98,2.05,3.33,3.53,4.25,3.40,3.73,3.06,2.51,1.37,2.64,1.04,1.45,1.17,-0.02,0.40,1.48,0.18,0.13,2.89,-0.37,0.66,-1.25,0.23,1.96,0.51,1.03,1.00,-0.67,-0.99,0.81,0.06,0.80
"ex4204",-0.91,0.59,1.80,1.41,4.05,2.36,2.88,2.58,2.63,2.50,2.33,1.44,1.29,1.62,0.89,1.62,2.70,3.59,0.36,-0.34,-1.09,0.18,-0.03,2.46,0.87,0.47,1.77,0.79,0.65,-0.05,-0.96,0.98,0.75,1.57,0.47
"ex4205",1.76,1.67,-0.34,-0.56,-1.17,0.33,2.08,1.58,0.52,3.66,3.08,3.84,3.89,3.41,2.44,2.83,2.32,-0.68,1.49,1.68,-1.04,-1.20,0.91,-0.42,-0.63,-0.52,-0.71,2.94,0.94,-1.45,1.44,-1.42,-0.58,0.23,0.70
"ex4206",-0.85,0.05,0.70,-0.82,-0.11,0.87,0.27,1.51,1.17,2.38,2.51,5.80,4.04,5.53,4.24,4.24,3.65,1.76,1.08,1.66,2.02,0.71,0.74,0.80,-0.20,0.28,1.09,-0.16,1.71,-0.34,-0.44,1.75,-0.20,0.40,-1.39
"ex4207",-0.76,1.77,0.49,3.28,5.91,2.22,4.00,2.65,3.74,2.69,4.07,1.13,2.88,0.40,0.06,0.70,1.58,1.40,-1.01,-0.39,-0.54,-0.18,0.20,0.27,-0.31,0.17,-0.93,1.24,0.32,0.34,-0.46,-1.07,0.02,0.94,0.02
"ex4208",2.36,0.63,0.72,2.58,1.24,1.93,3.11,3.54,3.70,4.32,3.02,3.05,1.41,2.05,2.18,-0.17,-0.41,0.13,-0.01,-0.54,0.19,-0.46,0.37,0.64,-0.34,-1.23,-1.15,-0.09,-0.36,0.15,-0.82,0.50,1.28,0.90,1.20
"ex4209",0.81,-0.48,-0.87,0.37,-0.61,1.83,1.92,3.94,2.47,4.73,6.43,4.88,4.80,3.29,1.44,1.31,1.08,-0.21,-0.40,-0.44,-2.27,-0.60,-0.55,-1.04,-1.37,-0.86,1.54,-1.35,-0.01,1.63,-0.58,0.77,-0.83,0.84,0.28
"ex4210",-0.42,0.68,0.90,0.91,2.18,3.63,1.97,2.97,4.15,2.36,1.92,2.84,1.06,2.93,2.67,1.55,2.38,0.58,0.42,1.12,0.74,1.97,1.19,-2.01,-0.25,0.59,-0.87,1.33,-0.38,-0.42,1.01,-0.64,1.21,0.51,0.14
"ex4211",-0.71,-2.31,1.37,0.73,2.65,1.66,1.33,2.47,2.71,1.43,1.56,1.54,3.45,3.28,3.39,1.50,3.30,1.83,-0.25,0.36,0.44,-1.33,-0.48,0.96,-0.09,-0.48,-0.72,0.12,0.59,-0.04,0.10,-1.15,-0.78,-0.41,-0.30
"ex4212",0.97,0.15,-0.43,-1.43,-0.13,-0.73,2.20,-0.11,0.74,0.96,3.92,3.56,3.98,4.19,2.84,2.76,2.08,1.31,1.50,0.84,-0.89,-0.73,1.30,-0.55,-1.02,-2.50,-2.59,-0.69,0.90,0.55,-1.12,0.88,0.33,0.06,-0.74
"ex4213",-0.24,0.50,2.69,3.64,3.64,3.14,5.02,3.39,2.60,1.67,0.89,1.32,0.77,0.68,0.61,-1.35,2.12,-0.37,0.65,-0.38,1.12,0.88,0.26,-0.91,1.42,0.71,-0.83,1.08,0.01,-1.11,0.26,-0.22,-0.22,1.39,0.70
"ex4214",0.74,-0.37,0.63,-2.54,-0.79,0.47,-0.29,1.12,2.98,3.08,3.52,4.08,4.28,5.57,4.65,2.69,3.97,1.72,2.05,0.33,-1.23,0.75,0.38,-1.72,-2.20,1.36,1.10,0.71,2.29,0.79,0.42,0.69,0.93,1.07,0.25
"ex4215",-0.67,-0.32,0.56,2.24,0.85,2.45,3.33,3.29,3.99,4.05,5.22,3.11,2.59,-0.09,2.32,0.63,0.12,-0.44,-1.99,-0.86,-0.52,-0.81,0.12,0.68,-1.64,-0.14,-0.58,0.26,0.93,0.20,0.31,-0.42,0.08,-2.18,-1.00
"ex4216",-2.56,0.21,0.60,-0.49,0.58,1.59,4.33,1.54,5.62,5.95,5.62,3.52,3.38,1.75,3.86,1.20,0.41,0.26,0.45,0.27,-0.34,0.94,-0.13,2.07,3.04,-1.01,-0.48,1.49,-0.46,-0.97,0.31,-0.97,-0.06,1.61,0.81
"ex4217",0.67,2.02,2.01,3.10,3.35,4.25,6.09,6.94,3.53,2.90,-0.19,0.20,0.78,1.43,-0.21,1.65,0.31,-0.00,0.20,-0.42,0.37,-0.50,1.24,0.01,0.03,0.59,-1.37,0.62,-0.45,0.45,-0.60,-0.15,-1.47,0.00,-0.33
"ex4218",0.98,-0.99,1.22,-0.20,0.76,-0.10,1.07,-0.34,1.01,1.45,4.04,2.93,2.18,2.82,2.53,4.10,2.17,2.47,2.31,1.37,-0.88,0.10,1.41,-0.23,0.34,0.22,-2.14,0.80,-0.33,-0.52,0.37,-1.06,0.82,-1.16,-0.77
"ex4219",0.66,0.99,0.52,1.00,-0.58,2.18,1.28,2.01,1.38,1.00,2.33,4.15,3.32,4.09,3.82,3.88,3.63,2.69,0.02,-0.60,-0.23,0.60,0.22,-0.96,1.34,0.78,-0.57,1.68,-0.85,0.90,0.33,-0.05,-1.01,-2.23,-0.20
"ex4220",1.22,1.19,0.36,1.18,1.09,2.91,2.06,4.87,3.54,2.83,4.75,3.83,3.46,4.56,1.35,0.16,-0.35,-0.80,0.49,1.12,-1.26,-0.37,0.90,0.24,0.94,0.18,0.29,-0.54,0.44,1.21,0.53,-0.85,-1.69,-0.95,-0.02
"ex4221",1.04,0.61,-0.13,0.20,-1.07,-1.42,-0.02,-1.12,1.85,0.39,1.73,3.50,1.69,4.50,7.51,5.79,3.74,3.52,1.79,1.48,1.04,-1.49,0.41,0.37,0.44,-2.28,-0.07,-1.31,-1.83,-0.44,-1.90,0.84,-0.19,-0.46,-0.11
"ex4222",1.88,-0.53,0.54,-1.27,0.01,-1.28,-0.76,0.54,2.05,3.14,4.42,4.19,4.94,5.84,5.79,2.89,3.99,2.45,0.83,1.65,0.83,-0.30,1.32,-1.06,0.63,-0.36,0.31,0.64,0.23,-0.81,1.95,0.27,-0.13,0.53,-0.64
"ex4223",-0.52,-0.78,0.56,-0.36,0.31,3.13,0.23,1.21,4.08,4.55,5.63,3.26,2.65,3.74,0.62,0.37,-1.43,1.83,-0.96,-0.17,0.87,-0.53,-1.30,-0.39,1.37,-0.32,-1.60,-0.05,0.57,0.93,1.79,0.57,1.25,0.58,0.27
"ex4224",1.80,1.04,-0.03,0.29,-0.06,1.39,3.02,4.53,3.40,6.71,5.57,4.16,2.22,0.68,1.90,1.18,0.05,2.55,-0.21,0.98,2.29,0.77,1.13,-0.28,0.41,-0.06,-0.53,-1.41,-0.68,0.13,0.62,0.90,-1.84,0.04,-1.25
"ex4225",1.01,-1.51,-0.05,2.78,4.03,3.00,4.91,5.44,0.59,5.59,2.04,2.42,3.16,1.83,2.18,0.24,-0.36,-0.17,1.48,1.06,0.25,-1.22,0.61,0.28,-0.46,0.80,-1.25,-0.50,-0.56,0.21,1.58,1.21,0.95,-0.32,1.12
"ex4226",0.51,0.24,2.59,2.47,2.35,2.77,2.89,3.19,2.20,1.62,4.07,2.78,2.32,3.18,2.24,0.79,3.27,1.27,-1.56,0.64,-0.48,-1.15,-1.04,0.67,1.21,-1.47,0.02,-0.41,-0.42,0.10,-0.86,0.79,0.08,-2.34,-0.23
"ex4227",0.25,0.03,0.39,1.80,1.68,2.56,5.58,1.90,2.47,2.17,3.07,1.66,0.99,2.60,2.54,1.27,1.39,2.54,-0.53,0.51,1.26,-0.50,-1.37,-1.88,-1.89,-0.02,-0.66,-1.99,0.97,1.54,-0.32,0.48,0.35,0.63,2.11
"ex4228",0.86,-0.05,-0.16,2.84,3.64,5.14,5.86,4.74,4.43,1.81,3.10,0.08,1.50,-1.43,2.43,0.62,-0.06,-1.22,0.20,1.71,-0.84,0.80,0.97,-1.26,0.27,-0.48,0.29,2.34,-1.71,0.13,-0.20,-0.26,-0.73,0.03,-0.71
"ex4229",1.64,-0.15,1.57,1.80,4.19,4.44,4.01,4.34,2.56,4.20,3.40,3.34,0.30,0.57,1.00,-0.40,-0.71,0.27,-1.91,-2.06,0.23,-0.92,-0.57,1.12,-0.05,-0.17,0.16,0.51,-0.39,0.35,-0.16,0.19,0.58,1.14,-0.52
"ex4230",0.34,-1.27,-1.57,1.15,-1.03,0.24,-1.04,0.48,1.20,2.12,1.80,3.43,3.69,3.40,6.05,6.14,4.27,2.90,1.72,2.98,0.59,-0.49,0.09,-0.91,0.66,0.75,-0.41,-0.54,1.23,-1.63,-0.91,0.82,1.19,0.50,-0.83
"ex4231",-0.24,-0.87,1.10,3.39,2.95,4.94,4.16,2.69,2.79,4.37,2.08,1.29,1.06,2.31,1.12,0.59,0.28,0.05,0.31,0.57,0.47,1.07,1.28,-0.21,-0.49,0.30,-0.29,-0.27,0.28,-0.77,1.69,-0.03,-0.33,1.18,0.45
"ex4232",-1.38,2.03,-0.07,2.40,5.57,4.21,5.38,4.34,1.91,2.79,2.68,0.51,0.25,-0.08,-0.43,-0.76,-2.41,0.64,-0.32,0.25,0.02,0.79,-0.63,1.46,1.15,0.70,0.38,0.55,0.34,-3.03,0.94,0.79,0.09,1.35,-0.40
"ex4233",-0.04,1.93,1.38,2.87,3.39,5.36,7.33,4.06,4.38,3.51,1.78,0.98,-0.21,-0.32,-0.59,0.51,0.29,0.91,1.01,-0.04,-1.15,0.60,1.00,-0.35,-0.70,0.08,-0.63,0.14,-1.53,-0.24,-0.60,-0.84,0.34,-0.70,-0.52
"ex4234",0.00,0.19,0.14,-1.03,1.09,1.15,0.44,-0.26,2.50,3.65,2.35,1.58,4.38,3.50,2.19,3.74,2.11,3.22,2.75,1.63,0.22,-0.81,-0.53,1.16,-1.52,0.64,0.31,-0.66,-1.16,-0.79,-0.98,-0.81,-0.15,0.28,-2.22
"ex4235",0.21,0.79,2.32,1.66,2.38,1.60,3.28,3.18,1.49,3.02,2.76,2.50,1.99,2.10,4.30,1.69,3.70,0.86,1.59,-1.15,0.67,0.70,-0.73,-0.90,1.39,-0.11,0.81,-0.32,0.49,-0.13,-1.10,0.53,-0.90,-0.85,0.36
"ex4236",0.14,-2.61,0.41,1.06,0.02,-1.41,2.53,2.62,1.92,4.17,4.95,4.78,3.44,2.63,3.36,1.65,3.15,0.78,0.09,-0.74,-0.57,1.21,-1.52,0.08,0.73,0.49,-0.43,1.18,-0.88,0.63,-0.41,-0.52,1.37,0.47,0.60
"ex4237",1.06,0.65,0.67,0.58,-0.24,2.19,1.75,4.04,3.01,3.39,5.80,5.64,3.72,5.03,0.85,1.39,-2.17,1.21,-0.35,0.08,-1.33,1.46,-0.61,0.01,0.88,1.29,-0.04,-1.02,1.18,0.07,0.15,0.18,-0.84,-1.11,-0.67
"ex4238",-1.25,-2.16,0.44,-1.06,-0.23,1.98,2.93,3.11,2.21,6.44,3.95,5.13,2.85,4.32,1.79,1.81,0.21,0.38,1.16,-1.75,-1.43,0.81,-2.24,0.63,0.50,-0.09,0.57,1.06,0.01,-0.77,0.55,-1.39,-0.76,0.99,-1.53
"ex4239",-1.35,0.40,2.12,0.66,1.67,2.95,4.54,4.73,5.82,4.23,4.29,2.82,3.49,0.69,-1.49,2.49,-0.03,-0.65,-0.56,2.81,-0.54,0.13,-1.16,-0.06,-1.35,1.49,0.42,0.55,-0.48,-1.17,0.53,-0.35,-0.69,1.60,0.50
"ex4240",-1.40,2.14,0.08,0.52,3.46,3.71,4.79,4.43,3.56,4.27,3.10,0.70,0.54,0.84,1.45,0.29,0.58,-0.42,0.45,-2.22,-0.04,1.52,-0.04,-1.64,0.46,-0.83,-0.15,-1.15,-0.06,-0.51,0.53,0.60,-0.13,-2.39,0.06
"ex4241",0.18,2.00,0.02,1.43,2.66,3.34,5.62,5.71,4.64,4.66,3.86,1.50,0.43,1.30,1.70,1.45,-2.02,-0.01,-1.49,-0.72,1.93,0.47,0.77,-0.97,-0.05,0.19,-0.45,0.58,0.99,-0.35,0.66,1.82,-1.08,-0.21,-0.31
"ex4242",-0.39,1.82,1.37,1.78,1.89,3.08,4.97,4.84,2.85,3.54,3.44,1.66,-0.54,0.59,2.34,2.57,0.28,2.71,-0.92,0.03,1.58,0.71,0.25,-1.14,0.18,0.42,0.87,0.52,-1.28,2.16,0.60,1.50,-0.36,0.47,-0.21
"ex4243",1.94,-1.10,1.19,2.36,-0.33,2.99,2.49,1.44,3.01,3.67,5.12,4.23,2.50,3.18,-0.26,-1.73,2.12,0.72,-0.60,0.42,-1.31,-0.04,1.64,1.32,-0.98,-0.91,-1.88,-1.18,-0.45,-0.13,0.74,2.20,0.95,0.25,-0.07
"ex4244",0.27,-0.77,-0.21,2.61,1.46,-0.37,1.72,3.56,2.71,4.95,7.92,4.54,4.79,3.37,1.52,-0.57,0.69,-2.33,-0.67,-0.19,0.43,-0.02,-1.19,-1.35,-1.32,0.32,0.24,-2.00,1.05,2.10,3.76,-0.49,-0.52,-0.52,0.59
"ex4245",-0.75,1.06,1.60,3.03,1.73,3.53,4.82,2.89,4.58,3.50,2.49,1.37,1.82,-1.59,0.75,0.36,-0.32,-1.46,0.88,1.39,1.03,0.26,1.40,0.51,0.35,0.85,0.68,-0.11,0.17,2.13,0.33,-1.15,-0.61,-0.93,0.68
"ex4246",-0.74,1.68,3.20,1.98,2.23,3.80,4.98,3.68,4.39,2.81,1.14,0.78,-0.09,0.24,1.61,-1.45,0.94,0.88,0.91,0.80,0.10,0.09,-0.46,1.24,0.62,-0.65,1.63,-0.38,0.15,-1.11,-0.08,0.67,-1.55,0.38,2.09
"ex4247",-0.30,0.83,0.79,2.32,4.23,6.04,4.65,3.89,4.09,2.59,1.23,0.45,1.59,1.06,1.38,-0.18,0.99,0.50,0.73,-0.70,0.06,0.09,-0.16,0.13,0.20,0.17,0.75,-0.56,-1.05,-0.33,0.89,0.12,-0.53,1.06,-0.05
"ex4248",-0.95,0.48,-0.10,1.16,1.43,3.24,2.54,1.23,5.12,4.53,6.37,4.10,2.24,1.78,1.90,0.30,0.67,0.83,1.76,0.50,2.04,0.98,1.25,0.58,0.25,-0.01,-0.66,-1.13,-0.60,0.68,0.40,0.77,0.64,-0.88,-1.02
"ex4249",0.03,-0.56,1.38,-0.35,0.82,-0.52,1.91,2.21,1.59,3.24,4.87,3.22,3.47,4.87,4.16,2.78,2.30,2.25,2.11,0.75,-0.28,-2.02,0.22,1.33,0.70,-1.61,0.14,0.09,-0.53,-0.91,-0.40,-0.63,0.00,0.58,-0.55
"ex4250",0.96,0.59,0.93,-0.07,1.41,-1.20,-0.09,1.56,2.00,3.18,4.15,4.81,6.41,4.13,3.25,3.42,0.39,1.57,0.60,1.18,0.89,-0.65,0.80,-0.43,-0.50,-0.24,-2.11,-0.37,-1.08,-2.18,0.11,2.06,0.35,-0.06,0.02
"ex4251",0.13,1.41,2.00,3.68,3.62,5.89,5.70,4.98,4.03,2.82,1.42,1.33,-1.77,-0.47,-0.74,-1.67,2.48,0.39,-0.25,0.72,0.13,-0.26,0.40,1.83,1.10,0.44,0.28,1.14,0.85,0.09,0.35,-0.00,-1.26,0.33,-1.60
"ex4252",1.40,-0.73,1.16,3.24,1.94,3.80,3.10,2.78,3.20,3.97,2.75,1.33,0.09,0.94,0.05,1.96,-0.14,-1.16,-0.03,-1.56,-0.99,1.78,-1.29,-0.05,1.10,0.19,0.61,1.83,-0.57,-0.45,-0.14,-0.46,-1.20,0.03,-0.02
"ex4253",-0.80,1.08,0.22,2.14,1.67,3.49,5.93,3.52,5.27,3.23,4.09,1.88,-1.00,0.95,-0.34,2.14,-0.31,0.28,0.56,0.31,1.07,2.37,-2.04,-1.35,-0.20,-2.11,-0.31,-1.30,1.03,-0.07,-0.32,-1.49,0.98,0.18,0.70
"ex4254",-0.41,1.22,1.95,1.22,2.92,4.63,4.04,3.40,3.28,2.39,2.05,1.67,1.24,3.02,2.84,2.68,2.16,1.80,2.51,-0.05,-0.52,0.77,1.61,-0.73,0.05,-0.07,0.66,-0.80,0.47,0.52,1.22,0.15,-0.03,-1.16,0.24
"ex4255",0.90,1.66,-2.47,-0.10,0.45,-0.35,2.43,0.50,2.32,3.21,3.56,2.88,2.93,5.06,4.88,2.48,1.38,0.72,-0.36,0.32,0.65,-0.05,-2.17,-0.97,0.34,-0.57,-1.25,-0.00,1.35,-0.46,-0.27,0.69,0.85,-1.62,-0.32
"ex4256",-1.44,2.44,1.34,1.81,0.60,0.72,2.27,2.52,1.68,1.40,1.07,2.83,3.13,3.42,5.40,5.70,3.58,2.65,1.23,1.45,0.13,0.22,-0.39,-0.28,0.42,0.98,-0.98,-1.97,-1.95,-1.14,-0.04,0.24,1.16,-0.42,-0.67
"ex4257",-0.82,0.47,1.29,0.74,3.99,4.69,2.35,2.51,2.83,3.72,5.42,2.11,0.85,0.55,2.16,0.45,1.35,2.79,-0.63,1.01,-1.18,-0.58,0.86,2.30,-0.56,0.25,0.56,-0.69,0.34,-1.37,0.12,0.48,-0.33,-0.08,0.67
"ex4258",-1.78,-0.44,0.45,0.44,1.45,3.46,5.00,3.88,4.40,5.42,4.87,2.01,4.06,2.80,0.85,0.75,-0.87,-0.01,0.36,-1.78,-1.09,0.46,-1.32,0.96,0.48,-1.73,0.53,-0.26,0.30,1.83,0.82,1.14,-1.24,0.70,0.47
"ex4259",0.25,1.15,0.86,1.11,2.11,0.93,0.60,-0.08,-0.71,1.32,2.91,1.43,1.59,3.52,4.42,3.74,2.09,3.04,1.08,0.23,-0.68,1.36,-0.61,0.35,0.27,-0.19,0.44,0.69,0.48,0.89,0.22,0.53,-1.79,-0.05,-0.09
"ex4260",1.82,0.74,0.40,0.43,2.60,3.18,3.19,4.75,3.60,5.14,5.03,5.04,2.78,3.58,1.82,-1.23,-0.26,-0.96,2.12,1.58,-1.43,-1.07,0.29,1.40,1.07,-0.06,0.14,0.72,-0.74,-0.52,-0.76,0.61,0.17,1.56,0.82
"ex4261",-0.08,-1.13,-0.80,-0.57,-1.43,2.01,0.34,-0.26,3.40,3.42,4.57,4.84,2.10,3.36,3.02,3.58,2.27,0.39,1.22,0.27,0.31,-0.31,1.13,0.96,-1.14,1.44,1.18,-1.53,0.40,1.90,-1.83,0.63,-0.53,-0.30,0.57
"ex4262",-0.56,0.07,0.03,-0.48,0.71,1.47,0.14,0.57,0.67,2.31,3.37,4.73,5.71,4.84,3.84,4.04,2.37,3.17,2.04,0.79,-1.68,-0.70,1.12,1.01,-0.81,1.42,-0.52,-0.36,2.19,-0.45,1.20,0.79,-1.33,0.74,-1.68
"ex4263",-0.20,-1.05,1.54,3.15,5.19,5.27,4.79,5.60,2.31,4.37,0.44,2.27,-0.31,0.14,2.40,-0.62,-0.52,1.32,0.06,-0.25,0.92,0.11,0.06,-0.43,0.22,-0.43,0.13,-0.82,1.42,0.92,-1.59,-0.88,0.11,-0.05,-0.87
"ex4264",-2.47,1.30,1.21,4.19,1.35,1.99,4.50,5.09,4.62,5.33,5.09,2.93,2.10,0.83,0.88,-0.55,0.29,0.95,0.11,0.84,-0.64,0.78,-0.82,-2.02,-0.24,1.37,0.66,0.29,-0.74,0.57,-0.07,-0.47,0.94,0.95,-0.45
"ex4265",-1.53,0.63,1.52,-0.06,0.08,1.37,1.16,1.31,3.48,4.45,6.47,4.39,3.17,3.39,4.09,2.33,0.64,-0.25,0.10,-0.33,-0.22,-0.01,-0.04,-0.51,0.81,-0.41,-1.54,0.23,0.05,0.84,-0.40,-0.50,1.31,-0.04,1.62
"ex4266",0.15,0.37,0.84,-0.51,-0.15,1.92,1.86,2.63,4.32,6.44,6.51,5.26,2.33,3.98,2.93,2.41,0.89,-0.61,0.39,0.32,-0.39,-0.03,-0.67,-0.12,0.26,-1.10,0.87,0.02,-0.24,-2.96,-1.07,0.33,-1.18,0.75,0.91
"ex4267",1.23,-0.02,1.86,0.47,-0.48,-0.33,0.99,1.87,1.37,2.55,4.26,4.79,4.47,2.61,0.74,2.21,-0.70,0.16,0.85,0.56,0.86,1.55,-0.79,0.48,-0.04,-0.10,1.03,-0.31,-1.95,1.16,2.16,0.12,-1.02,1.03,-0.60
"ex4268",0.56,0.06,1.28,4.03,5.37,6.36,4.55,3.81,5.05,3.13,0.99,0.62,1.56,0.12,-0.63,1.57,0.11,1.47,-1.06,-0.09,-0.76,-0.30,0.76,-1.21,-0.38,0.77,-0.23,1.89,1.56,1.64,-0.31,-0.18,-0.30,0.57,1.25
"ex4269",-1.03,2.33,0.18,1.70,2.68,4.91,6.12,6.74,3.84,1.21,1.49,1.40,0.01,-1.05,-0.47,-1.25,1.30,0.72,-0.21,0.12,-1.10,0.14,-0.63,0.17,-0.74,-0.23,-0.61,1.02,-0.19,1.69,-0.42,1.75,0.17,-0.93,0.20
"ex4270",-0.22,0.90,0.58,2.56,4.57,2.57,4.29,4.98,4.93,5.94,2.58,0.84,0.43,-0.21,1.66,-0.59,-1.73,0.70,2.53,0.52,1.73,-1.05,0.17,-0.50,-0.11,1.45,-0.46,-0.75,-1.28,1.50,1.17,-0.83,1.86,0.24,1.89
"ex4271",0.59,0.32,2.74,2.80,0.90,1.64,4.80,4.51,3.16,6.03,1.23,2.38,0.07,-0.06,0.51,1.94,0.60,-0.15,-0.93,-1.02,-1.10,-0.29,-1.11,0.21,-0.56,-0.06,-0.01,0.75,2.22,-0.76,1.30,0.16,0.83,0.22,-0.63
"ex4272",0.48,-0.96,2.07,3.36,3.94,5.40,5.30,5.33,4.77,3.37,1.72,1.30,1.64,1.46,1.69,-0.33,-0.73,1.62,0.49,1.87,0.44,0.07,-0.46,-1.43,1.03,1.44,-1.45,-0.84,1.19,-0.51,-0.19,0.24,-1.59,0.12,-0.27
"ex4273",2.18,-0.13,0.12,-0.23,-0.59,0.06,2.06,0.91,1.94,1.52,3.11,5.30,2.58,6.83,5.80,5.04,2.62,2.39,0.50,-0.49,-2.05,-0.83,-0.97,-0.67,-0.04,1.34,-0.34,0.88,-1.03,0.11,-0.80,0.58,0.70,-1.41,0.23
"ex4274",-0.02,-0.43,-0.12,1.74,2.35,2.74,4.34,3.78,2.02,2.56,4.73,3.84,3.02,1.98,0.94,1.10,0.58,-0.80,0.99,-0.09,-0.30,0.44,-0.02,0.08,-0.09,0.70,0.82,1.10,1.17,0.78,0.71,0.76,0.03,-0.57,-0.48
"ex4275",0.55,-0.97,1.17,0.30,2.21,2.45,1.34,2.06,-0.21,0.86,1.92,2.73,3.24,4.36,3.50,1.45,5.15,1.87,2.28,1.59,-0.40,1.23,-0.23,-0.29,-1.36,-0.60,-0.58,1.06,-0.28,0.94,0.48,-0.00,-0.03,1.44,0.16
"ex4276",0.31,0.26,-0.65,-0.49,-1.20,1.37,-0.25,3.28,3.17,3.23,4.43,5.36,5.31,5.14,2.90,2.77,3.40,1.41,1.62,0.20,1.34,0.07,-0.89,-0.62,-1.13,-0.20,-1.24,0.35,-0.99,0.86,-0.12,0.92,0.73,-0.07,0.15
"ex4277",1.36,0.08,0.58,1.51,3.55,1.38,2.89,3.27,2.15,1.64,3.12,1.34,1.04,3.04,6.16,1.47,3.95,0.72,2.02,1.60,1.26,0.86,-0.01,-0.13,0.49,1.02,-1.55,-0.16,-1.35,-0.26,0.04,-1.43,-1.73,-1.91,0.85
"ex4278",0.13,0.10,2.31,2.47,2.21,4.01,3.22,2.67,1.67,4.82,4.09,3.29,2.06,2.27,1.44,-0.22,-1.23,-0.24,0.85,-0.16,0.60,-0.76,-1.86,0.56,-0.22,-0.51,-2.37,0.64,-1.04,1.47,0.81,-1.38,0.55,-1.25,0.02
"ex4279",0.67,-0.12,1.58,0.98,0.49,3.80,5.22,2.51,3.61,4.05,2.80,2.11,0.36,1.62,1.81,0.73,1.12,0.28,-0.63,0.00,0.15,-0.94,0.04,1.48,-1.48,1.83,0.96,-1.51,-0.21,-0.32,0.11,-1.38,-0.40,-0.50,-0.22
"ex4280",-0.46,-0.16,1.08,-0.39,1.98,0.93,2.92,0.63,2.20,1.01,2.51,4.44,4.73,4.96,4.05,5.01,2.42,3.28,0.69,1.74,0.99,-0.21,-1.61,0.03,0.06,0.15,0.60,0.21,-0.04,-0.89,0.35,0.19,0.08,1.14,1.86
"ex4281",-0.31,1.45,4.72,1.99,3.52,5.17,4.00,3.03,4.19,2.74,1.91,0.28,0.70,2.15,0.65,0.51,1.06,-0.08,1.27,0.97,-0.89,-0.14,1.26,0.60,-1.41,-0.16,1.26,0.37,-0.80,-1.64,-1.11,3.17,-1.40,-1.42,1.17
"ex4282",-0.19,-0.00,0.80,1.03,2.45,0.04,3.27,2.32,4.13,4.13,4.11,3.51,3.70,3.20,0.55,1.26,0.41,-0.24,-0.26,-1.12,0.46,0.51,0.12,1.31,-0.92,-0.07,0.27,-1.07,1.33,-0.07,-0.47,-0.44,0.32,0.11,-1.62
"ex4283",0.96,0.32,1.02,0.48,-0.30,-0.25,0.34,-0.23,1.24,2.85,3.26,3.52,5.65,1.70,4.14,5.17,2.87,4.27,0.75,-0.34,-0.02,0.46,-0.61,0.03,0.03,1.17,0.29,0.86,1.00,-0.63,-1.71,0.04,0.17,-0.24,1.32
"ex4284",0.43,-0.59,1.08,0.10,-0.43,-0.24,0.82,1.15,1.45,2.41,2.82,4.70,5.47,2.10,2.92,3.40,2.99,3.52,0.85,-0.12,1.64,1.53,1.69,-1.29,-0.09,1.03,2.12,-0.48,-1.07,1.33,-0.01,0.83,-0.13,-0.41,-1.67
"ex4285",1.34,-0.88,-0.54,-0.55,0.75,3.18,2.14,3.35,4.40,3.37,6.25,3.04,1.55,2.14,0.62,0.84,0.90,0.88,2.46,0.48,1.31,1.39,-0.36,-1.18,1.98,-1.18,-0.62,-0.46,-1.35,0.74,-0.52,1.40,0.33,0.01,-0.44
"ex4286",-1.67,0.26,2.25,2.02,2.08,5.42,3.71,3.45,4.03,4.52,2.05,3.23,1.74,1.09,-0.43,-0.92,1.36,-0.02,2.26,-1.83,0.07,0.50,0.64,0.35,0.63,-0.31,-1.55,-0.45,0.68,-0.75,-1.79,-0.86,-0.24,-0.51,-0.54
"ex4287",-1.80,-0.14,0.05,1.79,1.35,1.54,2.48,3.33,4.04,2.47,2.41,3.02,1.50,2.75,1.19,0.52,-2.45,-0.21,-1.04,0.19,-0.10,0.16,0.98,1.29,0.77,0.15,1.58,-0.12,-1.95,0.31,-1.37,-0.10,-0.09,-1.31,1.90
"ex4288",0.35,-0.84,0.98,1.43,3.04,2.98,2.79,4.55,4.92,6.50,4.89,2.82,2.10,1.36,1.11,0.41,0.91,-0.72,0.08,0.20,-0.45,0.14,-0.64,0.80,-0.08,-2.18,0.77,-1.46,-1.89,-1.06,1.26,1.28,0.58,0.49,-1.52
"ex4289",-1.07,-0.91,-0.71,1.34,-0.29,-1.09,0.73,0.79,1.12,0.65,1.68,3.92,4.58,3.24,5.22,4.83,3.10,2.68,1.19,0.69,0.42,0.67,-0.78,-1.15,0.83,0.13,-0.23,-0.44,1.20,0.10,0.24,0.63,0.08,0.82,0.03
"ex4290",-0.13,-0.10,2.12,2.46,4.37,4.94,3.66,3.53,4.87,3.40,1.82,1.96,2.81,-0.87,0.34,-0.98,0.18,-0.86,0.85,0.27,-0.97,0.10,0.39,1.30,-1.05,-0.37,0.51,0.05,1.11,0.62,2.15,0.90,-0.52,-0.49,-0.19
"ex4291",0.10,-0.05,0.19,-0.54,-1.92,-0.13,-0.57,-0.37,-0.83,2.19,3.19,7.00,3.92,5.58,4.61,4.25,3.99,1.25,1.12,1.14,-0.34,0.56,0.59,-0.43,-0.40,0.76,2.02,-0.40,1.51,-0.56,1.40,-1.60,-0.19,-0.05,-0.30
"ex4292",-0.50,-1.31,-1.36,-1.57,-1.85,1.67,-0.00,2.19,3.13,6.42,3.62,5.09,5.07,5.12,2.91,3.32,0.36,0.40,1.43,1.09,0.39,-0.12,0.49,0.87,-1.07,-2.69,1.08,-1.53,0.33,0.81,-1.67,0.70,0.35,1.63,-1.14
"ex4293",0.82,0.62,-0.19,0.52,0.35,-2.50,1.53,-0.82,-1.38,0.78,2.72,3.26,5.18,4.71,4.44,6.10,5.30,1.52,1.56,1.73,0.41,-0.92,-1.03,0.59,-1.59,0.28,-0.25,-0.01,-0.37,-1.59,1.48,0.92,0.62,0.43,0.31
"ex4294",0.66,-0.83,-1.13,0.20,0.48,1.80,-0.47,2.17,3.42,4.12,5.38,4.46,3.48,4.56,2.53,2.53,-0.10,-0.43,1.33,-0.53,-1.56,-0.59,0.45,-0.97,0.19,1.74,0.46,1.36,-1.83,-0.71,0.10,0.88,0.38,0.53,-0.07
"ex4295",0.27,0.59,0.41,0.19,-1.69,-0.62,1.69,0.72,3.05,4.39,6.01,4.22,5.01,2.21,1.00,0.60,-1.73,-0.18,0.79,-1.57,0.57,0.59,0.74,0.04,0.71,0.03,0.59,0.82,-1.17,0.92,-1.10,1.30,1.51,1.20,0.70
"ex4296",1.04,0.83,0.67,1.56,1.91,2.43,2.46,1.90,1.49,2.16,1.99,2.21,2.29,3.48,2.20,3.32,2.79,4.19,0.12,1.31,-0.85,0.10,-0.53,1.08,-0.84,2.07,0.88,-0.09,-2.06,-0.09,0.01,0.58,0.22,-0.33,-0.87
"ex4297",0.48,1.09,0.74,-0.17,3.11,2.46,2.74,3.92,4.10,4.07,5.29,3.89,3.94,3.78,3.22,0.24,0.26,0.29,0.93,0.12,0.50,-0.99,-0.92,-0.40,-0.37,-0.29,-0.97,0.29,1.06,0.63,0.18,-2.27,-0.63,-1.64,0.51
"ex4298",-1.01,3.89,0.63,0.79,3.07,2.44,1.99,5.18,3.82,1.02,1.24,1.10,1.04,1.17,1.76,2.34,2.36,0.98,3.51,0.01,-0.57,0.45,0.09,-0.35,-0.60,1.84,-2.11,0.45,0.33,0.59,-0.18,-0.66,1.19,0.98,-0.47
"ex4299",0.27,0.30,0.73,-0.81,0.20,0.86,0.25,0.77,2.63,3.02,3.93,3.39,3.54,3.93,4.83,2.84,2.21,-0.17,1.54,1.00,0.24,1.35,-0.91,0.31,0.47,1.90,-2.13,-1.39,0.62,-0.00,0.44,-1.43,0.20,1.02,0.16
"ex4300",0.05,0.00,0.22,1.57,-0.36,1.70,1.45,3.53,5.44,4.31,6.11,5.78,1.81,2.00,1.08,-1.00,-1.29,-0.38,-0.26,-0.27,0.95,-0.18,-0.01,-1.23,-0.16,-0.44,-1.54,-0.18,1.14,-0.01,-1.01,0.24,-1.66,-0.18,-1.56
"ex4301",0.59,1.12,-1.03,1.46,-0.64,1.78,0.97,4.52,3.44,5.30,6.63,7.07,3.55,1.89,2.39,2.12,-0.38,-0.54,-1.59,-0.10,-1.02,-0.32,0.43,1.32,-0.27,-0.85,-0.06,-0.13,-0.44,0.59,-1.12,0.30,-0.66,-1.33,0.30
"ex4302",2.22,-0.62,1.18,-0.74,-0.38,0.53,1.63,1.20,1.60,4.46,5.45,4.31,5.31,0.62,3.93,2.11,-0.29,3.19,-1.12,-0.37,0.00,-0.81,-0.48,1.21,0.23,-0.33,0.16,1.47,0.30,1.15,0.59,0.52,0.08,-0.53,0.47
"ex4303",2.61,-0.96,-0.19,-0.22,0.07,1.58,2.22,2.51,3.36,5.72,5.89,3.10,2.68,4.38,0.80,1.38,-0.25,0.61,0.33,-1.14,0.52,-0.49,-0.03,-0.54,1.04,0.20,0.14,-0.11,0.03,-0.47,0.85,-1.18,-1.79,-1.16,-1.26
"ex4304",0.45,-0.58,1.01,-0.28,1.08,1.59,3.82,3.27,5.13,5.92,6.38,4.15,1.95,1.67,3.50,1.67,-0.09,0.39,-0.80,0.05,-2.47,-0.08,-1.94,-0.87,0.69,0.39,1.24,-1.52,-0.12,1.52,-0.68,0.46,0.25,0.86,-0.33
"ex4305",1.33,-0.55,-0.29,-0.59,-0.50,-0.40,0.96,0.34,0.68,2.48,3.24,3.03,3.89,3.41,5.60,4.36,2.73,2.67,1.13,0.08,-1.92,-0.79,-0.46,0.78,1.84,0.18,1.54,0.62,-0.49,1.11,0.14,-0.23,1.48,-0.99,-1.15
"ex4306",0.36,1.74,-0.18,0.62,-0.70,-1.29,-0.08,2.29,1.90,3.07,3.35,3.86,1.83,2.91,3.60,1.75,1.19,1.05,1.04,0.05,1.84,-1.41,-0.17,0.29,1.79,-0.30,-2.06,0.78,0.16,-1.24,0.94,-0.97,-0.79,1.18,-1.17
"ex4307",-0.47,0.74,2.26,4.62,2.61,3.23,5.63,3.97,3.57,3.57,2.40,0.84,-0.03,0.83,1.14,0.82,1.16,0.77,0.27,-0.75,-0.53,0.47,0.17,0.38,-1.23,1.92,1.11,-1.09,0.83,2.55,-1.02,-1.76,-1.46,0.51,0.07
"ex4308",0.71,-0.94,1.92,-0.20,-1.18,1.21,0.59,1.34,1.24,1.56,3.06,6.44,3.80,3.39,3.66,1.36,2.66,0.99,-0.46,2.05,0.80,0.56,2.11,-0.81,-1.11,0.74,-0.21,-0.09,0.30,0.14,-0.34,0.56,1.31,-0.22,0.28
"ex4309",-0.40,1.51,-0.65,0.56,-0.48,4.35,1.55,1.87,1.14,3.20,2.16,3.12,2.84,1.89,3.43,3.06,2.97,0.85,1.72,0.75,1.23,0.82,-0.84,0.91,1.75,-0.63,-2.42,-0.96,1.56,0.66,-1.09,0.36,0.26,1.02,0.77
"ex4310",0.28,-0.17,0.75,2.02,3.83,4.29,3.84,0.40,1.22,3.20,2.80,1.70,3.07,1.18,3.15,2.14,1.74,0.54,2.69,1.67,0.09,-0.82,0.38,1.18,1.48,-0.18,1.41,-0.52,0.32,0.13,-0.00,-1.09,0.37,0.26,-1.62
"ex4311",-0.75,1.31,0.72,0.83,1.13,-2.81,1.44,1.43,-0.33,0.63,2.39,0.32,3.18,4.01,7.58,3.39,5.22,3.86,2.18,0.83,-0.59,-0.02,0.39,-0.64,-0.27,-2.17,-0.44,-0.50,0.03,1.78,0.50,-0.48,0.12,0.69,0.97
"ex4312",-0.45,0.97,1.63,3.70,4.06,5.27,7.48,5.26,4.69,0.81,1.42,0.10,0.78,0.33,0.02,0.31,-0.48,-0.78,-0.32,-0.10,0.91,1.58,0.84,0.64,0.41,0.59,0.26,0.45,0.93,1.01,-0.17,1.42,0.60,-0.33,-1.24
"ex4313",-0.77,0.85,1.74,3.23,2.94,1.02,2.29,2.10,2.35,2.64,2.46,2.00,0.14,1.06,2.52,0.81,1.91,2.09,-1.17,-1.85,1.37,1.61,0.51,-0.43,-0.38,-0.70,2.14,-0.19,1.55,0.40,0.05,-2.12,0.48,1.63,-2.64
"ex4314",-0.02,0.30,-1.03,-0.68,1.18,2.35,4.67,4.22,2.94,5.27,4.81,4.45,2.65,4.29,0.16,0.97,0.38,-1.11,-0.01,-1.16,0.39,-0.75,-1.44,-0.01,-1.17,-0.98,0.40,0.06,0.13,-1.64,0.99,0.18,0.34,0.52,0.60
"ex4315",-0.11,-2.26,-0.41,0.46,1.24,0.40,-0.18,-1.01,1.40,2.82,2.97,1.78,3.42,3.55,4.04,4.00,1.64,0.53,1.40,1.01,-1.27,1.53,-0.51,-0.90,0.60,0.79,-0.96,-1.14,-0.89,-0.32,0.60,1.29,-0.19,0.58,1.05
"ex4316",-2.60,0.52,-1.00,0.67,1.15,0.33,1.74,0.20,1.80,0.94,3.35,2.41,3.48,4.69,3.57,3.91,1.98,0.92,0.77,1.57,-0.41,0.40,-0.65,0.91,0.01,0.74,-0.66,0.59,-1.20,-2.32,0.59,2.90,1.40,-1.91,-1.77
"ex4317",0.92,0.31,0.05,1.19,-0.72,0.44,2.13,2.87,2.53,5.55,5.04,3.72,5.65,2.31,2.54,2.15,0.65,0.72,-0.80,-0.55,1.11,-0.76,0.12,-1.24,-0.78,0.50,-2.36,-1.06,0.33,0.26,0.48,0.60,0.47,-0.01,-1.60
"ex4318",1.77,0.42,1.49,2.96,3.60,3.20,4.20,3.58,4.75,1.76,4.02,2.07,2.78,1.54,-0.22,0.75,-0.48,-0.49,-0.54,-0.48,-0.37,-0.01,-1.00,0.62,-0.66,-0.12,-0.13,-0.11,0.47,-0.93,-0.55,1.24,-1.40,0.31,-0.73
"ex4319",0.97,0.57,-0.20,0.83,1.47,0.62,1.99,2.85,0.55,0.94,1.90,1.60,1.76,1.95,1.15,1.73,1.20,3.17,0.49,-0.11,0.96,1.45,-0.15,1.50,-0.74,0.20,-0.15,0.56,1.49,-1.25,1.36,-0.81,0.68,-0.77,-0.61
"ex4320",0.06,0.70,1.10,2.85,2.96,3.26,3.99,4.00,1.97,3.54,1.08,-0.95,2.13,1.78,2.44,1.53,2.23,0.19,1.43,0.88,-0.87,-1.53,-0.05,1.77,1.58,-0.29,-2.05,0.25,-1.11,2.02,1.02,-1.28,-0.17,1.62,-0.20
"ex4321",0.06,0.42,2.03,4.18,1.63,3.85,5.28,2.90,4.85,2.09,1.47,2.06,1.23,1.81,-0.11,-0.53,-0.19,-0.57,0.94,1.67,-1.27,1.25,0.99,-0.27,0.60,-2.03,-1.48,1.51,1.42,-0.46,1.68,-0.22,-0.89,0.61,-1.81
"ex4322",0.85,1.08,2.15,2.63,3.57,3.68,5.16,1.21,2.92,2.98,1.80,2.70,2.45,3.56,2.73,4.19,2.75,3.19,0.47,0.88,-0.60,-1.35,0.51,-0.42,-1.04,-0.30,-0.32,-1.43,1.72,-0.80,0.37,2.51,2.12,-1.69,0.04
"ex4323",-0.55,0.40,1.15,0.98,0.38,1.04,1.39,2.53,2.11,3.38,3.65,3.59,3.35,3.66,4.74,3.34,3.49,1.01,2.17,1.67,-1.15,-1.34,-0.49,-0.00,-1.18,1.37,-1.58,-0.98,-0.10,0.65,-0.69,-1.16,0.44,-1.21,0.29
"ex4324",0.56,2.11,-0.16,2.25,4.66,3.96,5.59,2.98,3.76,1.65,0.73,3.85,0.61,0.13,1.71,0.25,0.60,1.29,1.03,1.08,0.85,-1.27,1.46,-1.05,-0.43,-0.61,-0.26,-0.64,-1.21,-0.27,0.73,1.05,-0.50,1.34,-1.21
"ex4325",0.84,-0.09,-1.50,2.22,0.63,1.10,-1.33,0.56,0.67,-0.09,1.68,2.80,3.26,3.28,4.00,3.10,2.22,3.51,0.97,0.83,0.20,1.64,-3.04,1.38,-1.10,1.07,2.48,-0.33,-0.45,-0.63,-3.54,-0.82,1.24,-1.23,1.24
"ex4326",1.18,0.96,2.71,0.98,4.60,6.03,5.25,4.83,2.19,3.08,3.09,2.79,-0.30,1.14,0.72,-0.35,0.27,0.22,-0.37,-0.46,0.36,0.84,0.93,0.06,0.57,-0.64,-0.40,-0.45,1.33,-0.99,-2.01,-0.71,-0.18,1.08,-0.37
"ex4327",1.01,-0.17,0.81,0.33,0.20,2.65,0.97,4.37,3.96,4.97,4.81,4.16,3.86,1.61,3.74,0.73,0.64,-0.27,-0.40,-1.26,-0.73,0.76,0.05,-0.42,0.53,0.06,0.74,0.09,-1.41,0.24,-1.47,-3.41,-0.20,-0.09,-0.68
"ex4328",-0.03,1.78,0.59,0.42,-0.74,0.14,-0.37,1.19,-0.69,3.23,2.49,2.92,4.45,5.08,5.56,5.84,0.78,2.25,-0.39,1.76,-0.88,-0.18,-0.21,0.91,-1.09,-0.43,0.58,0.35,1.18,0.32,0.80,-0.37,0.48,1.39,0.92
"ex4329",-0.77,0.68,1.30,1.76,2.80,3.62,5.30,4.22,3.60,5.24,3.78,1.66,1.34,1.75,-0.31,0.77,1.59,-0.20,-1.93,0.26,0.99,-1.30,0.85,1.09,0.86,-1.70,-0.11,-3.29,1.60,0.25,0.98,0.49,0.21,-0.47,-0.21
"ex4330",-0.98,-2.01,1.88,-0.92,0.86,1.41,-0.23,1.21,2.85,5.05,4.73,3.05,2.63,3.77,2.16,3.53,-0.10,1.33,-2.09,0.02,-0.62,-1.07,-1.97,1.96,1.69,0.28,-1.15,-1.19,0.41,0.68,1.31,-0.11,0.27,-0.93,-0.30
"ex4331",0.27,0.62,1.04,2.99,3.43,4.20,6.23,4.64,4.41,1.98,1.13,1.00,-0.43,-0.90,0.45,-0.56,0.79,0.27,-0.32,-0.20,2.53,-1.63,-2.62,-0.33,-0.30,-0.34,-0.94,1.09,0.48,0.50,-1.47,0.42,-0.42,0.17,-0.29
"ex4332",1.06,-0.35,0.27,1.40,6.20,2.78,5.64,3.58,2.41,2.37,1.71,2.55,1.04,-0.27,1.76,-0.63,0.82,-0.54,-1.38,-0.24,1.98,-0.23,-1.28,1.28,1.29,0.57,-0.96,0.32,1.07,0.67,0.13,-0.93,0.81,-0.89,-1.31
"ex4333",-0.15,1.53,1.17,-0.21,-0.08,1.48,2.24,1.19,3.56,3.63,4.06,4.35,3.24,3.58,2.05,1.20,0.31,1.54,-0.93,0.53,-1.98,0.71,-0.36,1.23,-0.91,0.37,1.96,-0.42,-0.07,-0.81,0.91,1.38,-1.08,-0.66,-0.69
"ex4334",0.55,1.21,2.39,0.23,0.48,2.20,2.17,0.65,2.72,1.73,4.06,1.16,3.13,0.99,3.64,3.18,1.69,1.61,2.02,-0.72,0.19,-0.39,-1.15,1.00,1.82,-0.95,-0.48,-0.43,1.47,-0.19,-1.23,1.59,0.80,-0.46,-1.52
"ex4335",0.80,-1.26,-1.14,-0.94,-0.19,0.88,-0.22,0.08,0.09,2.43,2.17,5.16,5.76,3.24,2.96,3.27,1.99,1.72,1.21,0.04,1.04,0.53,-1.58,2.34,0.39,0.28,0.55,-1.08,0.73,0.77,-0.60,-0.25,0.99,1.49,-1.38
"ex4336",1.46,1.69,0.10,-1.50,-2.09,-0.50,2.01,0.50,1.39,3.46,4.27,4.85,4.22,4.67,5.24,2.94,1.99,2.84,0.44,-1.15,-0.33,-1.10,-0.06,0.74,-0.61,0.71,0.75,-1.31,-1.55,0.17,-1.67,-0.41,1.67,-0.99,-0.45
"ex4337",-0.78,1.51,1.18,1.27,2.44,2.44,2.05,3.40,2.19,1.67,2.55,2.46,0.64,1.56,2.32,1.96,3.46,0.24,0.71,-1.90,1.13,-1.35,-1.14,-1.12,0.87,1.57,1.34,1.09,-0.86,0.54,0.39,-0.20,0.09,-1.76,1.05
"ex4338",0.43,0.76,-0.61,2.98,2.84,5.42,5.14,5.37,3.23,2.54,2.64,0.87,-1.71,0.81,1.81,1.20,1.23,1.66,-0.95,-0.05,0.18,-0.35,-0.53,0.65,1.55,1.33,-0.35,0.93,-1.88,-0.42,0.83,-0.06,-0.40,1.03,0.57
"ex4339",0.48,0.74,1.38,1.16,1.15,2.36,3.35,4.16,4.34,3.36,2.27,1.60,0.47,0.86,1.97,0.69,0.87,0.82,-1.02,-1.03,0.96,-0.72,-0.51,-1.53,-1.25,0.38,0.41,-0.42,-0.21,-0.45,-1.59,2.05,-0.12,-0.58,-0.69
"ex4340",1.28,-0.22,0.36,1.60,2.09,1.93,4.26,3.26,2.75,5.05,5.02,2.69,2.05,1.49,2.79,2.78,-0.86,0.66,-2.15,-0.32,-0.93,-0.20,-0.30,-0.56,2.11,-1.67,-0.25,1.15,-1.30,0.27,0.29,-0.36,0.21,-0.02,0.67
"ex4341",-0.27,0.46,0.75,0.86,-0.43,0.18,0.26,0.13,1.69,3.51,3.33,2.93,4.53,3.38,3.74,2.96,1.06,-0.51,-1.01,-0.11,0.54,1.58,1.36,-0.91,-0.46,-0.16,-0.08,-1.88,3.06,-0.23,-0.32,-0.88,0.96,-2.60,0.16
"ex4342",-0.56,2.51,-0.26,0.00,0.23,0.29,0.72,1.63,1.56,1.47,3.74,4.19,4.46,3.69,2.74,3.60,1.64,1.02,-0.68,0.36,1.04,1.08,-1.64,0.74,-0.99,-2.85,0.15,-0.23,1.12,-0.33,-0.07,-0.57,0.65,0.04,-0.02
"ex4343",0.50,1.56,0.75,1.70,1.44,2.66,4.21,3.52,3.86,5.91,2.98,3.40,0.25,1.81,-0.90,3.23,0.61,0.34,0.25,-0.17,0.15,1.13,0.60,1.38,-0.19,-1.34,-1.05,-0.27,-0.51,0.03,-1.12,0.31,0.79,0.16,0.28
"ex4344",-1.52,-0.60,1.44,0.98,1.27,3.88,0.67,0.01,2.10,2.28,3.12,0.47,0.77,2.17,2.47,3.66,1.94,0.50,0.25,1.71,0.82,0.80,-2.32,0.75,1.13,-0.36,0.71,0.75,-0.95,-1.28,1.43,-0.85,-0.84,-1.58,-0.14
"ex4345",1.39,-0.29,2.15,1.40,3.39,4.51,3.19,6.33,5.32,2.23,2.57,4.20,4.02,0.64,0.97,0.44,0.74,1.77,-0.15,0.63,-0.13,1.32,1.08,-1.27,-0.12,1.02,0.51,-0.64,-0.36,-0.34,-0.31,0.51,-0.87,0.55,0.11
"ex4346",1.32,0.33,-0.61,0.53,2.28,0.96,0.65,1.91,2.40,2.54,2.48,3.76,2.87,3.46,2.24,4.70,0.67,1.59,1.82,-0.29,0.29,-0.76,-0.69,-0.06,-2.35,1.04,-1.75,1.15,1.57,-1.15,2.17,-1.43,0.09,-0.48,-0.25
"ex4347",-0.53,-0.09,2.70,1.15,3.87,6.57,5.33,3.93,3.46,3.46,3.14,1.78,2.24,0.25,2.94,0.48,1.46,-0.07,2.03,0.28,-0.65,0.13,0.35,-0.38,-0.30,0.72,-1.05,-0.81,0.56,-0.69,0.15,-1.85,0.12,1.59,0.73
"ex4348",0.87,1.50,1.29,4.31,-0.07,6.17,4.73,6.12,2.83,1.78,1.56,1.32,-1.48,0.24,-1.05,-0.54,0.31,1.59,2.04,-1.21,-0.79,-0.03,1.20,-2.05,1.08,0.56,-0.21,0.15,-1.40,-2.47,-2.94,-0.53,-0.25,1.67,-0.42
"ex4349",0.91,0.68,3.17,-0.14,1.54,5.02,5.25,4.21,1.80,3.28,3.06,2.31,0.65,0.72,1.20,0.22,-1.69,1.22,-0.58,0.94,0.29,-0.57,-0.10,-0.17,-2.05,-1.23,-0.04,1.58,-0.40,-0.41,-0.26,1.09,1.12,1.43,0.85
"ex4350",1.75,-0.22,-1.45,-2.14,0.24,0.64,0.11,0.54,1.36,2.34,1.31,3.06,4.31,3.84,4.68,4.21,3.43,2.10,1.93,0.76,0.39,0.16,-1.41,1.23,1.71,-1.46,0.77,2.05,-0.40,1.38,0.08,-1.93,-0.29,-0.13,-0.57
"ex4351",-1.36,-0.67,0.97,-1.57,-1.14,1.27,3.44,2.07,3.77,4.54,5.49,2.48,5.38,4.78,1.43,1.24,0.07,2.77,-0.99,0.74,0.63,1.55,0.52,0.35,1.06,0.58,-0.07,0.41,0.01,-1.08,0.67,-0.32,0.10,0.86,-1.03
"ex4352",0.29,1.01,0.88,4.23,2.72,3.30,4.93,3.15,4.76,2.61,1.82,-0.07,0.96,0.50,0.50,0.88,1.09,2.02,2.46,0.25,-2.00,-0.04,1.17,-0.56,1.85,-0.45,0.71,1.97,-0.79,-2.67,-0.80,0.18,1.25,-0.02,-0.86
"ex4353",-0.75,0.29,1.92,3.04,3.72,4.28,3.03,3.65,1.68,2.09,1.91,1.14,-0.20,-0.10,2.28,2.28,0.02,1.53,1.40,1.21,-0.48,-1.34,0.11,-0.96,1.63,-0.30,0.18,-0.16,0.30,0.87,0.01,-1.31,-0.81,0.37,-0.88
"ex4354",1.92,-0.73,1.75,-2.01,0.60,1.69,1.53,2.91,2.98,4.92,5.89,4.72,5.73,3.41,1.24,1.90,2.14,-0.06,-0.92,0.43,-0.41,0.53,-1.28,0.02,0.17,0.01,0.26,-0.13,0.73,0.77,0.37,0.77,-1.88,-0.42,0.95
"ex4355",0.62,1.35,1.34,2.71,3.33,4.62,4.68,3.76,2.99,3.30,2.84,1.75,0.50,0.73,2.28,0.40,1.16,1.18,1.92,0.07,-0.26,-0.22,1.37,0.02,0.86,-0.77,0.77,0.22,-1.08,0.11,-0.14,-0.58,0.39,0.67,-1.84
"ex4356",-1.62,0.34,-0.29,1.64,1.65,3.08,4.36,3.80,-0.13,2.36,1.95,-0.32,1.90,2.22,0.66,-0.28,1.40,0.16,1.90,0.36,-0.26,-0.10,-0.81,-0.51,-0.50,0.39,-1.73,0.62,0.14,-0.03,-0.64,-0.27,-0.09,-0.83,0.32
"ex4357",-0.35,0.35,2.98,1.58,1.20,2.61,3.39,2.98,2.49,0.88,1.93,1.13,0.69,1.83,3.95,1.61,1.52,3.13,0.38,-1.02,-0.66,-1.48,-0.54,0.80,-0.68,-1.69,0.09,-1.52,-0.15,1.95,-1.18,-0.63,0.40,-1.41,-0.23
"ex4358",0.17,1.01,0.04,-1.15,2.17,1.50,4.64,4.61,3.65,6.35,3.74,4.67,4.45,5.49,0.44,1.48,0.00,-0.02,-0.80,-0.88,0.41,-0.91,-0.86,-0.56,0.01,-0.84,-0.93,1.93,-0.03,-0.07,-0.82,-0.14,-0.49,0.31,0.18
"ex4359",-2.66,0.95,2.40,2.02,2.62,4.89,4.95,5.18,4.10,3.25,1.76,2.79,1.94,0.33,0.75,1.78,0.18,-0.27,2.92,1.44,-0.68,-1.45,0.35,-0.95,-0.55,0.68,0.18,0.86,0.46,0.04,0.63,1.07,1.16,0.25,0.08
"ex4360",0.82,-1.73,-0.43,0.46,1.90,2.47,2.36,3.55,3.59,5.67,6.58,3.22,2.34,4.18,1.87,1.02,0.23,-1.81,-1.18,-0.06,-1.19,0.93,-0.16,-0.60,-1.33,-0.38,-0.40,0.01,0.48,0.17,-0.83,0.29,-2.95,0.99,-1.36
"ex4361",0.12,-0.83,-0.46,-0.35,-0.10,-0.03,1.44,1.93,2.86,0.98,3.19,4.04,3.64,3.91,4.11,2.69,1.96,4.31,2.30,1.56,0.60,0.46,-0.74,-0.75,-2.05,0.49,0.86,-1.14,0.42,0.69,-2.42,0.55,0.65,0.42,2.46
"ex4362",-0.11,-1.37,0.38,0.39,-0.41,0.31,0.75,1.48,4.55,3.67,3.00,4.68,3.94,3.81,3.76,1.86,2.42,1.39,0.51,-0.47,-0.92,-0.62,0.24,0.44,0.05,-0.16,-2.45,-0.77,-0.31,-0.09,-0.15,0.27,-0.99,-0.97,1.23
"ex4363",0.72,-1.15,-1.04,2.45,0.53,0.83,1.58,4.09,3.64,5.58,5.48,3.70,3.18,4.16,2.78,-0.68,-1.49,-0.12,0.84,-0.47,1.16,0.63,0.15,-0.52,-0.09,-2.01,-0.86,-1.33,0.70,0.95,-1.57,0.47,-0.54,-0.28,0.29
"ex4364",0.25,0.67,-0.97,-0.05,1.12,-0.56,3.70,3.10,3.03,3.92,3.47,2.98,2.45,1.92,3.05,1.50,-0.21,-1.24,-1.59,1.04,0.10,0.50,-0.08,1.06,0.29,-0.50,0.27,1.59,0.74,-1.39,-0.16,0.11,-0.04,-0.33,1.16
"ex4365",-0.89,0.16,-0.79,-1.53,1.24,-0.92,0.61,-1.23,0.78,1.41,1.48,2.41,4.37,4.63,5.59,4.30,3.37,2.89,1.40,0.51,0.31,-1.36,-0.80,1.27,-0.08,-1.14,0.36,1.20,0.61,0.80,-0.60,-0.72,-1.30,-1.72,-0.43
"ex4366",-0.12,-0.33,-1.23,-0.18,0.98,0.70,0.02,2.01,3.62,3.63,4.26,1.79,3.41,5.00,3.12,1.21,1.81,1.56,-0.09,0.62,-1.54,1.55,1.16,0.12,-0.10,0.54,-0.13,0.91,1.36,1.65,1.38,-0.49,0.28,-1.69,-3.34
"ex4367",1.88,0.20,1.43,0.02,0.37,0.08,0.36,1.52,2.11,2.90,4.75,3.94,4.09,3.13,2.71,3.37,1.61,-0.44,1.33,-2.21,-0.07,1.50,0.58,-1.70,0.18,1.64,0.99,-0.86,0.33,2.15,-0.86,0.81,-1.39,-0.29,-1.40
"ex4368",-0.47,0.32,1.14,0.72,0.51,3.29,5.74,5.09,4.70,3.90,4.91,3.31,2.65,0.96,1.87,2.19,-0.37,-1.13,0.96,1.63,0.35,1.31,0.11,-0.89,-0.61,0.32,0.24,0.42,0.21,0.20,0.51,1.83,2.34,2.17,-1.09
"ex4369",0.79,-0.23,0.71,1.10,0.88,2.02,2.75,3.27,3.70,4.11,5.58,4.62,2.48,5.40,1.04,3.57,-0.43,0.66,0.17,1.03,-0.19,-0.84,-0.12,0.46,1.18,-0.28,-1.00,0.19,0.46,-0.17,-0.32,-1.19,-0.14,-1.37,0.40
"ex4370",-0.12,-1.16,1.31,1.81,1.54,1.77,3.61,2.79,2.22,4.36,3.82,5.11,3.31,0.63,1.48,1.25,3.05,-1.38,-0.36,-1.47,-1.50,1.27,1.77,-0.53,-0.62,0.57,0.53,-0.34,-1.03,1.00,0.11,-1.40,0.76,0.15,1.87
"ex4371",0.45,0.99,-0.48,1.30,0.91,0.68,3.28,2.72,5.58,3.02,4.73,3.57,1.68,3.13,0.55,2.47,-0.30,-0.21,0.75,-1.18,0.89,1.43,-0.01,-2.41,1.65,0.46,0.08,0.97,-1.16,-0.86,-0.63,0.51,0.02,-1.53,0.22
"ex4372",1.33,-0.02,0.48,1.60,3.11,3.58,3.00,1.69,2.13,0.00,0.66,3.08,1.76,1.98,2.88,2.73,3.70,0.02,0.80,-0.93,1.67,-1.96,-0.63,1.15,0.13,0.32,1.48,-0.67,-0.06,-0.43,-1.48,-1.09,0.48,-1.35,1.06
"ex4373",1.55,-1.11,-0.28,0.06,1.53,1.70,3.54,1.67,0.84,0.45,4.03,3.32,2.99,4.08,2.60,4.16,2.72,1.73,2.54,0.55,-0.80,0.32,0.02,1.33,0.38,0.62,-0.49,-0.26,-1.09,0.70,-1.30,-1.26,0.25,1.18,-1.90
"ex4374",-0.12,1.40,0.66,0.14,-0.85,0.38,1.75,-0.10,1.03,3.31,3.40,4.35,6.24,2.32,3.49,3.81,3.24,0.87,2.79,0.58,0.11,0.16,-1.22,0.69,2.03,-0.25,0.85,-0.15,0.67,0.72,0.21,1.27,1.15,-0.76,0.54
"ex4375",-2.15,0.51,0.57,2.37,3.90,4.72,7.46,4.39,4.37,1.37,2.12,0.55,1.11,1.19,2.39,0.79,-0.94,-0.36,-1.19,0.93,-0.58,0.47,0.28,-0.60,-1.78,0.16,-1.01,0.50,0.45,-0.26,0.64,-0.31,1.48,-1.20,0.31
"ex4376",-0.23,1.33,1.69,1.48,3.91,5.14,3.14,5.61,4.16,1.61,3.32,2.56,1.62,1.40,2.17,0.16,2.26,-0.21,1.14,0.31,0.36,-0.44,0.15,2.35,-1.79,1.03,-1.42,-0.66,-0.25,-0.45,2.14,0.76,0.94,-0.50,1.07
"ex4377",-0.41,-1.53,1.12,1.82,1.71,1.35,3.96,5.20,0.50,0.09,1.91,1.21,-0.45,1.01,3.29,2.43,2.86,-0.39,2.24,-0.08,0.41,0.52,-0.62,-0.23,-0.68,0.31,1.28,0.05,-0.40,0.16,0.21,-0.24,-0.07,0.62,-0.32
"ex4378",0.12,0.68,0.36,1.14,0.36,0.08,-1.11,0.08,1.33,3.98,4.69,3.40,2.61,4.74,6.34,5.47,3.57,1.56,2.14,1.04,-0.15,-1.49,1.50,-0.75,0.58,1.35,0.35,0.18,1.72,-1.48,0.33,-0.77,-0.80,0.75,1.72
"ex4379",-0.71,0.66,0.60,1.30,4.10,5.12,5.34,2.68,3.95,3.35,4.26,3.21,2.46,1.16,0.70,0.41,-1.03,1.09,0.13,-0.66,0.98,1.26,-1.09,-0.27,-0.36,-0.88,-0.18,-0.18,-0.52,-0.69,-0.20,-0.57,0.89,-0.11,0.07
"ex4380",1.70,0.82,-0.54,0.14,0.20,2.60,1.25,2.83,2.28,3.75,5.21,5.89,5.66,4.60,4.87,1.02,2.86,2.10,0.57,0.48,-0.15,0.89,0.55,-1.44,-0.25,-1.64,-0.40,-0.84,1.36,-0.60,-0.81,-1.43,0.75,-0.03,0.92
"ex4381",0.77,1.76,0.54,3.23,3.23,3.10,4.75,4.21,3.72,3.20,4.16,3.46,-0.41,2.64,0.21,0.83,0.12,-0.14,1.79,0.31,-1.94,-0.07,1.93,-0.09,-0.65,0.66,0.16,-1.35,-1.23,-0.37,-0.48,0.54,-1.53,-0.99,-0.13
"ex4382",1.37,0.50,-1.05,-0.57,-0.52,-0.87,1.66,1.97,1.85,3.02,5.40,5.27,4.78,5.83,3.14,3.75,1.40,1.91,0.22,-0.69,-0.54,-0.60,-0.31,-0.02,0.56,0.29,1.50,-0.62,0.30,0.93,0.32,1.93,-0.86,-0.99,-0.46
"ex4383",0.44,0.34,-2.56,1.58,1.75,3.23,1.00,3.06,2.67,2.83,6.15,3.15,3.47,4.46,4.35,4.25,1.92,-0.18,1.36,0.32,-1.70,2.06,-0.04,-0.29,0.08,-0.38,1.38,0.43,0.31,-1.24,-0.07,-0.44,0.54,-0.76,-0.04
"ex4384",0.77,1.51,-0.88,2.44,2.31,4.44,5.36,4.91,4.35,2.33,1.59,2.29,0.21,1.49,1.85,0.76,1.52,0.92,-2.26,-0.29,0.50,-0.86,-0.43,-1.08,-0.21,-0.81,1.16,0.20,-1.05,0.24,1.09,0.50,2.00,0.50,-0.63
"ex4385",-1.15,0.82,0.78,3.02,2.50,5.61,4.76,4.20,4.17,3.33,1.58,4.75,1.78,2.32,0.39,0.75,-0.46,-0.57,-1.44,-0.23,-0.93,0.56,-0.80,0.94,-0.41,-2.22,0.80,-0.82,1.04,-0.33,-1.18,-1.01,-0.06,1.37,1.05
"ex4386",0.98,-0.77,1.95,1.17,4.34,4.43,4.35,3.80,4.07,4.73,2.79,2.35,1.74,0.80,0.21,-0.38,0.67,-0.18,-2.07,0.79,-0.72,0.68,0.65,0.80,-0.59,-1.33,-0.63,-2.44,-0.96,0.89,1.08,0.12,-0.48,0.15,-0.70
"ex4387",0.64,-1.28,-0.66,-0.22,1.89,0.24,3.64,3.42,4.47,4.29,5.89,2.67,3.15,0.61,0.84,1.16,0.08,0.29,-0.45,0.39,-1.54,-1.53,-0.24,0.63,-0.59,-1.50,-1.98,2.60,1.02,-1.44,-0.30,1.29,-0.69,0.73,0.04
"ex4388",-0.83,-2.14,-0.57,1.90,-0.36,4.03,3.65,2.48,4.95,4.76,3.39,2.66,3.47,4.12,2.01,-0.81,0.22,0.27,1.14,-1.32,-0.47,1.32,-0.24,0.43,1.58,0.06,0.45,1.05,0.98,-0.15,-0.25,0.69,1.98,-0.84,0.11
"ex4389",-0.37,-0.01,0.05,2.19,4.23,3.45,3.55,4.45,4.53,5.08,4.94,3.19,0.85,2.06,0.79,-0.39,-0.49,0.31,-0.74,0.63,0.16,1.34,1.32,0.57,-0.64,0.12,1.30,1.64,0.19,0.15,-0.98,-0.32,1.26,1.69,-1.76
"ex4390",0.47,-0.14,0.52,2.04,1.69,0.56,1.64,2.05,0.67,0.40,1.73,1.90,5.35,5.24,5.28,4.15,4.45,2.01,1.16,0.10,2.58,0.83,0.42,0.99,0.91,-1.02,-1.68,-0.73,0.36,0.11,1.81,0.88,-0.97,-0.35,2.72
"ex4391",1.77,0.43,0.77,0.42,0.90,0.47,-0.05,0.92,0.28,1.78,1.63,3.20,3.69,4.71,5.11,3.49,2.03,4.07,1.91,1.44,0.36,2.40,-2.51,-0.26,-0.25,0.17,-2.53,2.03,0.78,1.74,-2.98,1.05,-0.92,0.41,-0.02
"ex4392",0.37,-0.03,2.23,1.86,2.63,2.05,1.95,4.44,2.19,1.20,1.98,1.98,2.25,1.85,1.29,2.37,0.45,1.35,-0.07,2.29,1.04,-1.27,-0.73,0.25,1.55,-0.25,0.17,-0.14,-0.50,0.45,0.32,1.08,-0.23,0.03,1.11
"ex4393",0.10,0.14,3.13,2.27,2.95,4.47,4.98,5.90,2.33,5.21,2.43,2.43,0.11,-0.24,0.45,-0.00,0.50,0.57,-0.74,0.32,-0.74,-0.60,-0.43,0.92,1.14,0.51,-1.36,-0.34,1.19,0.21,1.79,-0.12,0.28,-0.10,-0.54
"ex4394",1.35,0.16,-0.77,2.04,-0.59,1.08,2.11,3.42,3.95,4.15,4.93,3.86,3.41,2.96,2.39,0.70,1.07,0.49,-0.40,-1.06,1.22,-0.19,-1.18,0.92,1.01,0.93,0.09,-0.38,0.41,-0.72,1.35,-1.36,-0.19,-0.91,0.56
"ex4395",1.68,-0.92,-0.46,1.55,0.35,1.78,2.10,3.62,4.47,3.50,6.82,4.24,4.95,2.12,1.63,-0.19,-0.68,2.39,0.99,0.71,-1.19,-0.43,0.60,0.84,0.84,-0.49,1.71,-1.05,0.94,-0.56,0.02,0.02,-0.43,0.49,-1.16
"ex4396",0.30,-0.49,-0.84,-0.94,-1.13,0.77,1.60,0.35,-0.00,1.73,3.46,4.35,3.90,4.64,4.30,3.01,3.85,1.16,0.54,-0.54,-0.26,0.39,-0.08,-0.38,-0.11,-0.04,-0.69,0.69,-0.02,1.15,0.48,-1.46,-2.59,-0.38,-0.58
"ex4397",0.95,-2.29,1.13,-1.07,-1.24,-1.06,0.79,4.11,4.58,4.44,7.42,2.48,5.25,3.68,3.64,3.18,1.58,-0.96,1.09,-1.26,0.90,0.62,-1.26,-0.52,-1.15,-2.15,-0.38,-0.07,1.90,0.99,-0.32,1.61,-3.33,0.94,0.69
"ex4398",-1.35,0.12,0.06,0.92,1.13,0.06,4.70,2.49,3.11,4.57,6.64,3.27,1.63,3.37,1.88,-0.50,0.72,0.84,-2.20,-1.35,0.96,-0.36,-0.14,-0.29,1.64,-0.40,1.00,0.69,-0.14,0.97,-2.07,-0.92,1.15,0.99,-0.35
"ex4399",-0.20,2.08,1.10,1.70,-0.37,4.22,3.66,3.89,3.49,5.83,3.98,5.48,3.29,2.03,0.57,1.84,0.21,0.98,-1.88,0.42,-0.16,-0.31,-0.39,0.96,-0.06,1.89,0.90,2.66,1.86,-0.51,-0.16,0.41,0.35,1.10,1.86
"ex4400",0.60,-0.11,-0.07,2.11,1.24,0.84,1.69,1.39,1.15,1.17,2.17,1.41,2.17,3.27,2.04,2.61,3.02,2.24,1.57,0.83,0.46,-1.03,-1.24,0.91,0.35,0.31,-0.75,-1.04,1.24,-0.40,-1.48,1.44,0.22,0.40,0.47
"ex4401",-0.04,0.72,0.09,2.21,1.64,4.23,6.96,2.32,4.87,2.69,0.73,2.59,-1.29,0.32,-0.12,-0.02,0.84,-0.50,-0.77,-2.00,0.15,1.44,-0.93,0.80,-1.55,-0.54,0.16,-0.69,0.32,-0.19,0.25,1.18,0.09,0.46,-0.25
"ex4402",1.10,-0.47,1.24,1.79,1.53,0.97,3.65,1.05,-0.13,2.08,0.47,1.38,2.70,5.98,3.14,3.53,4.22,1.78,0.56,1.14,-0.43,-1.58,-0.53,0.39,0.94,-0.93,1.31,0.80,0.86,2.83,1.64,-0.37,-0.29,-0.28,0.70
"ex4403",-0.98,0.50,1.01,1.78,3.78,3.89,5.03,5.55,3.58,3.08,1.16,2.69,0.15,0.25,0.44,1.45,-0.43,1.07,-0.74,-0.06,-1.15,-1.15,-2.33,1.07,0.05,-0.16,-0.35,2.70,0.83,2.05,0.40,0.16,-1.24,-0.22,-0.18
"ex4404",0.43,1.14,2.16,1.98,3.16,5.17,4.25,4.26,3.23,2.03,1.50,1.06,0.91,0.93,-1.00,-0.03,-2.37,0.70,-0.66,-0.15,2.27,1.30,-0.01,-0.39,0.57,1.19,1.18,1.76,0.32,-1.23,0.28,-0.19,-1.42,0.20,0.84
"ex4405",1.04,-0.07,-0.59,2.11,1.56,-0.18,1.64,3.05,3.11,4.93,5.88,3.63,5.34,3.59,1.38,1.23,-0.39,-0.22,-1.71,-0.20,-0.56,-0.77,1.06,-0.31,0.90,0.08,-0.20,0.37,-0.72,-0.95,-0.91,0.68,0.78,1.03,-1.66
"ex4406",2.12,0.54,1.10,1.62,3.55,4.10,6.59,6.49,4.81,2.28,2.64,0.42,1.28,0.97,1.71,1.17,1.14,-0.45,0.48,-0.05,-0.02,0.48,0.54,-0.80,-0.65,-2.78,0.05,0.74,-1.05,-1.24,0.55,-0.37,1.40,-1.32,0.15
"ex4407",-1.43,2.23,0.77,1.91,3.33,5.05,6.33,5.41,4.77,3.95,2.19,0.87,1.51,0.42,0.42,0.61,-1.14,-0.26,-1.86,2.66,-0.49,-0.52,-0.91,0.55,-1.23,0.89,-0.73,0.21,-0.03,2.57,-0.29,1.70,1.07,0.77,0.66
"ex4408",-0.72,0.35,-1.95,-3.25,-0.58,-0.73,-0.55,3.13,3.61,2.87,4.07,5.70,3.89,3.33,3.31,2.81,0.69,1.10,1.26,0.97,-0.73,1.55,-0.47,0.72,-1.84,0.15,-0.19,-0.01,-0.28,1.29,-0.03,-1.81,-0.04,-0.00,-0.77
"ex4409",-0.33,-0.43,-0.66,-0.84,-0.25,1.03,2.96,1.96,3.06,6.07,5.35,3.74,2.85,4.10,3.76,1.75,2.89,1.08,0.41,-0.65,-0.20,0.52,0.80,0.33,0.32,1.64,-0.06,0.21,0.73,0.30,-2.42,0.06,-0.25,-0.27,-0.34
"ex4410",-0.57,0.90,1.38,3.35,3.42,3.12,4.26,5.07,2.70,2.59,0.93,2.63,-0.51,2.13,1.77,0.06,0.82,0.27,0.72,1.20,-2.56,-1.13,-2.20,-1.17,-1.14,0.58,-0.47,2.23,-0.07,-0.64,0.38,-0.31,0.09,-0.15,-0.62
"ex4411",-1.05,0.74,1.85,3.83,2.65,5.19,4.70,1.41,4.85,2.45,2.09,0.95,0.81,-0.01,1.02,1.26,0.51,0.31,-0.52,-0.64,0.55,-0.39,0.48,0.49,0.07,-0.16,1.21,-0.98,0.91,0.69,-0.91,-1.90,-1.31,0.34,-2.47
"ex4412",-0.48,-0.05,2.63,3.50,2.91,5.11,4.36,3.29,2.96,1.28,1.54,0.73,3.10,0.33,1.49,1.01,2.61,-0.23,0.44,0.18,1.27,-2.47,0.26,-0.36,-2.39,-0.99,1.36,-1.97,-0.03,-0.90,-0.77,0.53,1.34,-2.32,-0.35
"ex4413",0.19,0.48,1.26,0.20,2.58,1.79,3.49,2.97,0.66,3.34,1.88,0.45,2.84,1.66,3.90,2.82,0.70,2.59,0.12,-0.89,1.99,-0.98,1.76,0.21,0.86,2.07,-1.16,1.72,0.84,-1.87,-0.49,0.33,-1.07,0.22,1.11
"ex4414",0.54,0.57,0.93,-1.33,1.99,0.24,1.82,1.86,1.04,1.45,1.38,2.94,2.38,5.53,2.66,2.77,3.38,-0.39,1.80,0.50,-0.99,2.76,1.47,1.31,-0.25,-0.13,0.78,0.52,-0.32,-0.60,-0.11,-1.25,-0.29,-1.12,-0.75
"ex4415",-0.11,-1.01,0.59,0.47,2.19,1.92,2.92,5.06,4.65,5.08,5.74,5.50,2.38,0.63,-1.05,-0.61,-1.11,0.48,-1.64,1.28,0.34,-0.19,0.45,0.14,-1.09,1.05,0.37,-1.24,-1.02,-0.31,1.67,-0.12,-1.18,1.05,-1.06
"ex4416",1.24,-0.51,-0.05,0.25,0.44,0.88,0.29,2.41,3.89,4.77,6.15,5.30,3.54,3.61,2.93,1.28,0.94,2.26,0.99,0.39,-1.44,0.18,0.59,1.25,-0.98,-0.23,-0.69,0.80,0.85,-1.13,0.46,0.98,0.15,1.44,-0.00
"ex4417",-1.30,-0.06,-0.07,0.21,-0.84,0.30,3.39,1.75,0.95,3.28,5.22,2.42,1.86,4.10,1.44,0.95,2.35,0.27,0.71,-1.08,0.15,-1.11,0.55,0.64,0.76,-0.57,0.24,0.31,-0.02,-0.28,0.45,1.84,1.08,1.41,1.29
"ex4418",-0.62,0.50,-1.27,1.35,0.82,0.60,2.94,2.80,2.24,4.54,6.81,2.63,3.65,0.07,0.33,0.61,-0.91,1.05,1.72,0.28,1.00,0.29,-0.01,0.15,-1.03,0.05,-0.73,-1.12,-1.75,0.49,-0.95,0.46,0.57,-1.34,0.33
"ex4419",-0.91,-1.11,2.01,2.16,0.98,3.16,1.83,1.50,4.26,2.79,0.85,1.04,2.59,4.45,5.00,2.28,2.81,1.72,2.87,1.99,2.34,-0.23,0.42,0.13,-0.22,0.95,0.42,0.70,-0.11,0.54,1.59,-0.36,-0.45,0.11,1.51
"ex4420",-1.80,-1.38,1.99,0.59,-1.11,1.92,2.47,2.06,4.54,5.36,6.67,5.90,2.77,5.10,4.37,3.63,2.65,0.83,0.93,-1.49,-0.15,0.89,-0.27,0.25,-1.23,-0.65,-0.98,2.84,0.94,0.34,-1.55,-0.49,0.58,-0.59,0.63
"ex4421",0.40,-0.07,0.60,2.39,2.45,4.18,4.86,3.06,2.36,3.15,2.35,2.31,3.14,1.09,1.55,2.22,2.59,0.73,2.30,1.78,-0.31,1.03,0.56,-1.49,-1.62,0.64,1.90,-0.25,0.26,-0.27,-2.50,1.33,-0.03,-1.24,0.42
"ex4422",-1.31,2.00,2.53,2.23,4.78,3.63,7.55,2.06,2.82,2.40,3.23,0.84,-0.71,-0.07,1.05,1.38,0.34,0.08,0.23,1.05,0.05,-2.02,-1.28,0.12,0.08,-0.01,0.96,-0.06,-0.67,0.68,-0.93,0.53,1.12,-0.10,0.01
"ex4423",0.23,1.66,0.47,3.98,4.31,4.50,3.06,1.96,3.78,2.54,3.04,-0.19,-1.48,0.19,-0.35,1.70,0.64,-0.13,-1.47,-1.44,-0.59,1.32,-0.01,-0.29,1.31,-0.39,1.58,-0.18,-0.60,-0.52,0.67,-0.36,-0.84,-1.99,2.61
"ex4424",1.37,2.50,1.08,3.40,3.75,4.22,6.48,4.26,3.50,4.98,3.00,0.21,1.23,0.24,2.36,-0.89,1.87,1.92,0.01,0.91,-0.62,0.36,0.46,-0.97,0.13,1.11,-0.64,0.96,0.33,-0.49,1.47,-0.07,0.78,-0.48,-1.87
"ex4425",-1.47,2.21,0.38,2.53,3.69,2.54,3.34,2.62,3.38,1.14,1.11,1.40,1.20,2.74,2.18,1.88,2.17,2.60,2.63,-0.12,-0.76,-0.62,2.33,-2.24,-0.71,-0.16,-0.92,-1.30,-0.04,-0.10,0.19,-0.55,-1.48,-1.41,-0.84
"ex4426",-0.25,1.61,1.41,1.98,2.49,4.07,5.57,5.16,5.20,4.14,3.68,1.18,1.15,1.37,1.42,-0.64,1.04,2.07,-0.20,0.07,-0.60,2.15,-0.06,0.85,0.85,-1.05,0.23,1.25,-0.31,-0.15,-0.87,-0.62,-0.60,0.24,0.61
"ex4427",-1.64,-2.18,0.88,0.90,2.48,0.32,2.38,1.80,1.39,1.16,3.24,3.70,2.77,3.47,5.75,4.74,5.12,2.70,1.04,-0.79,0.23,-0.74,-0.33,-0.74,-0.62,0.29,-0.44,-0.25,0.72,-0.15,-0.53,0.04,-0.44,0.97,0.80
"ex4428",0.81,0.38,0.26,1.08,-0.13,1.07,0.70,1.47,1.76,1.38,1.93,2.96,3.11,4.81,5.43,4.63,4.69,3.34,1.20,0.90,-0.19,0.44,2.02,0.73,-0.53,0.31,1.77,-0.17,1.21,-0.01,-0.93,-1.08,-0.76,0.02,-0.91
"ex4429",-0.68,0.78,1.26,-1.00,-0.40,2.99,1.19,-0.14,0.17,2.76,0.91,3.95,3.64,2.89,5.86,2.68,2.52,3.01,0.67,-0.16,-0.03,-1.51,1.32,-0.05,-1.88,0.49,2.07,-0.08,-1.42,0.62,2.38,-0.19,0.60,2.15,-0.28
"ex4430",-0.01,-0.46,-0.37,0.64,1.11,-0.36,0.81,-0.68,1.30,2.68,2.87,3.38,3.30,4.36,5.26,2.88,3.55,1.79,0.54,2.97,0.71,2.11,0.52,0.59,-0.51,-0.08,-0.34,0.06,-0.27,-0.13,-0.55,1.41,-0.10,-1.40,-1.94
"ex4431",-2.23,1.12,1.03,2.04,3.21,2.23,4.36,1.93,3.10,2.49,1.94,2.50,0.37,0.55,0.20,0.48,1.27,-0.08,0.30,0.57,0.30,-0.22,0.92,0.60,-0.68,-1.66,0.04,1.40,0.42,-1.18,1.16,-0.30,-0.30,0.63,0.31
"ex4432",-2.11,1.36,2.72,2.44,2.47,3.61,5.43,5.09,6.63,1.15,3.40,3.42,0.56,0.48,1.95,1.89,-0.28,0.74,0.07,-0.51,-0.33,-0.68,-1.73,-1.76,-0.73,-1.16,0.11,1.43,1.11,-0.71,-1.73,0.24,0.31,0.12,0.95
"ex4433",-0.86,-0.61,-0.72,-1.41,-1.53,-0.82,-0.83,1.08,2.95,1.04,0.82,2.69,5.78,4.14,5.10,4.23,4.51,3.27,2.19,-1.79,-0.99,0.35,-0.95,1.02,-0.76,-1.89,2.41,-0.67,1.45,-1.56,-0.84,-1.37,0.47,-0.88,1.83
"ex4434",0.78,0.09,1.96,3.30,3.88,4.73,6.05,4.64,4.07,4.20,3.26,2.67,1.16,1.60,1.07,-0.02,-0.45,-1.91,-0.12,0.16,-0.70,-0.78,-0.89,-0.91,-0.04,0.43,1.05,-0.11,1.09,-0.91,1.19,0.46,-1.68,0.56,1.74
"ex4435",-1.88,0.80,0.70,0.10,1.25,-0.82,1.58,2.12,-0.85,0.67,3.24,3.69,4.17,4.13,4.94,4.48,2.34,1.84,0.90,0.79,0.36,-0.79,0.60,2.31,0.49,-0.54,-1.91,-0.83,-0.50,-1.62,-1.25,1.74,-1.11,0.54,0.37
"ex4436",-1.69,0.10,-0.64,-0.77,-2.45,-0.18,1.15,-0.50,0.56,2.64,5.00,2.75,6.16,5.40,4.55,4.09,1.48,0.70,0.69,1.53,-0.99,-0.17,1.75,-1.39,-0.38,-0.87,-1.12,-0.29,-0.20,-0.49,-1.22,0.23,0.36,-0.42,-0.10
"ex4437",-2.45,-0.79,1.05,-0.15,-3.03,-0.14,0.85,1.09,3.19,2.65,5.04,4.08,4.60,4.40,4.49,2.17,2.03,1.35,0.48,0.58,0.88,-1.29,0.98,1.77,0.53,-0.81,0.43,-1.06,-0.99,-2.04,0.00,0.04,-0.66,-0.58,-0.01
"ex4438",0.68,1.05,2.50,1.75,1.63,-0.94,3.05,3.58,3.00,4.07,4.45,3.80,3.61,0.75,1.62,1.68,0.55,0.25,0.41,0.11,0.17,0.26,0.54,0.04,1.16,-0.92,0.23,0.74,1.51,0.75,0.59,-1.90,0.67,0.01,1.51
"ex4439",0.66,1.21,-0.25,-0.30,-0.46,2.47,2.89,3.88,4.60,4.88,5.14,4.63,2.89,2.31,2.43,0.05,-0.09,-1.18,-0.77,-0.45,0.07,-1.26,-0.49,0.25,0.04,-0.79,-0.68,-0.15,0.33,0.46,1.63,0.62,-0.14,1.52,1.04
"ex4440",-0.21,-0.64,1.21,2.66,-0.07,1.70,2.54,1.51,3.02,2.93,6.78,5.19,2.96,2.26,2.06,2.59,0.18,0.56,-1.39,1.31,-0.14,2.67,-0.96,-0.07,0.62,1.13,0.47,1.13,-2.31,-0.84,-0.50,-0.39,-1.73,-2.63,-0.23
"ex4441",1.15,0.14,-0.93,-1.67,-0.33,0.04,1.23,4.94,4.81,4.59,7.23,4.26,2.92,4.35,2.42,0.87,0.51,0.37,0.39,0.27,0.30,-0.58,-0.53,-1.09,-0.13,-0.84,-0.52,0.93,0.02,1.33,0.07,-0.18,1.05,-1.50,-0.25
"ex4442",2.92,-0.29,0.12,0.98,-1.80,0.59,1.42,4.31,5.86,6.40,3.75,4.10,3.27,3.02,3.47,2.48,-0.71,1.67,-1.14,-0.66,-0.91,0.79,-0.35,0.08,-1.25,0.39,1.80,-0.01,-0.35,-1.45,1.35,1.46,-0.31,0.51,-0.82
"ex4443",1.28,0.26,1.53,0.07,3.28,2.33,4.06,4.02,4.87,3.22,2.16,0.72,0.30,2.55,2.77,2.98,0.28,-0.36,1.02,0.87,0.69,-0.59,-1.04,0.26,0.71,1.19,-0.26,0.78,-1.05,-1.06,0.58,0.37,-0.61,1.01,-1.41
"ex4444",0.74,0.41,3.32,1.72,2.98,2.81,3.28,5.45,3.39,5.53,3.79,2.39,3.25,2.02,0.87,0.42,0.20,-0.60,1.99,-0.63,-0.10,-0.15,-0.13,-0.68,0.14,-0.21,2.92,-0.25,0.46,-1.21,1.34,0.14,0.48,1.24,1.00
"ex4445",-1.37,-0.08,-0.02,0.57,-1.52,2.35,0.84,1.43,2.85,4.18,2.78,3.33,3.05,3.92,4.85,2.60,3.05,2.03,2.94,0.84,-0.41,0.62,-0.53,-0.99,0.09,-0.90,-1.77,1.44,-0.55,0.63,-0.62,-2.36,2.10,0.18,1.52
"ex4446",-0.83,0.19,-0.03,0.23,-1.56,-0.72,1.24,1.78,1.33,3.00,5.64,5.87,6.27,5.04,6.15,3.31,3.69,3.54,2.33,1.48,-1.16,-1.22,0.27,0.03,1.26,1.66,-0.83,0.38,-0.03,0.37,1.23,0.84,0.96,0.63,1.12
"ex4447",-0.46,-0.81,1.19,4.19,3.91,4.27,4.59,1.23,3.50,3.34,3.78,3.03,1.32,-1.05,0.51,-0.93,-0.36,-2.25,0.91,-0.54,-0.31,0.37,-1.05,0.05,0.11,0.25,0.08,-0.37,2.05,-0.45,-1.48,-1.19,0.42,-1.53,-2.33
"ex4448",0.97,1.24,1.83,3.28,4.55,4.47,3.62,5.66,3.98,4.49,3.14,0.55,0.04,-0.87,-0.07,-0.59,0.65,-1.35,-1.50,0.36,-1.67,2.12,1.41,1.43,-1.39,-0.51,0.63,1.94,-1.54,2.01,0.07,-0.32,0.03,0.17,0.77
"ex4449",-2.17,0.44,3.11,1.70,3.46,3.25,6.25,4.16,3.01,3.62,1.73,2.43,0.44,2.15,1.71,1.09,1.02,2.97,-1.82,-0.60,-0.40,0.62,1.40,-0.57,-1.11,0.19,1.11,-1.58,-0.21,-0.73,-1.72,1.32,-0.71,-1.85,-0.82
"ex4450",-1.07,-0.27,1.80,0.08,1.13,2.13,5.00,6.00,4.90,2.20,4.19,3.16,3.45,1.84,0.38,0.47,-1.43,1.32,0.78,-0.16,-1.95,0.42,-0.72,-0.87,-1.51,-0.97,-0.31,-0.87,-0.66,0.76,-0.13,0.09,-1.24,-0.52,1.09
"ex4451",1.56,-1.47,-0.04,0.88,0.14,0.09,0.65,-1.19,0.04,1.50,3.40,2.45,4.51,4.53,6.49,4.68,6.29,3.30,2.26,1.18,-1.57,0.96,0.15,-0.41,-1.39,1.18,0.18,-0.66,0.99,0.90,3.00,-1.83,0.73,-0.13,-0.96
"ex4452",-0.18,-2.44,0.23,0.35,-0.23,0.98,0.56,3.11,0.59,2.74,4.42,3.92,3.55,5.20,4.07,1.70,2.09,1.64,0.35,1.13,0.34,0.14,-1.64,-0.06,0.47,-0.72,-0.28,0.11,-0.25,-0.15,-1.18,-0.17,0.18,0.87,-1.38
"ex4453",-1.09,1.01,0.01,-0.26,-1.62,0.32,2.75,2.18,2.81,4.47,5.76,4.07,5.07,3.07,1.98,0.60,0.44,-0.76,-0.66,1.72,0.19,-0.64,0.22,-0.75,-0.00,2.53,0.29,0.83,-0.26,1.04,0.06,-0.70,-0.49,1.38,-1.01
"ex4454",0.49,0.35,0.75,1.15,2.30,2.25,2.02,3.51,2.31,3.82,1.20,0.52,1.76,1.48,2.97,1.14,1.36,0.58,1.58,0.02,-1.20,-0.74,-0.29,0.81,0.06,0.26,-0.24,-1.42,-0.90,-0.07,0.56,0.01,-0.54,-0.58,1.83
"ex4455",0.75,0.42,-1.02,0.13,-0.73,-0.21,1.20,2.12,1.70,1.54,2.72,2.02,3.58,2.71,4.75,4.00,2.14,2.09,0.56,-0.03,-1.71,-0.87,2.25,0.04,0.47,-0.09,-0.65,0.09,-1.88,1.39,1.03,0.67,0.91,-1.52,1.42
"ex4456",-0.05,0.20,0.65,-0.67,0.85,-1.33,-0.39,1.33,1.43,3.43,4.31,4.83,3.16,5.50,6.12,3.88,1.68,-0.17,0.29,-0.43,-0.70,0.87,0.39,-0.37,0.87,-1.18,-0.54,-1.79,0.05,1.09,2.28,0.95,2.73,0.30,-0.10
"ex4457",-2.09,0.66,1.68,0.92,-1.27,-1.98,1.10,0.52,2.94,4.13,2.21,4.46,3.89,3.71,3.44,1.89,2.12,-0.07,3.53,0.07,0.22,-1.87,-1.44,-0.91,2.37,-0.56,1.67,0.49,-0.43,0.70,0.59,0.26,2.27,1.29,0.20
"ex4458",0.86,-0.09,1.16,2.09,3.12,1.88,1.28,1.02,0.06,0.80,1.15,3.01,2.24,2.03,4.57,1.34,2.71,4.44,1.23,1.19,-0.81,-0.45,0.09,2.28,-0.61,0.77,-1.69,-0.78,-0.23,-0.11,-0.99,0.07,0.20,0.79,0.88
"ex4459",1.48,2.39,0.95,3.58,1.88,3.88,2.49,2.90,1.79,3.33,0.90,2.96,0.91,1.22,3.69,0.98,1.10,1.37,-1.06,0.74,-0.93,0.81,-0.32,1.94,0.65,-0.53,-0.87,-0.74,-0.13,0.42,-0.52,-1.38,-1.03,-0.82,-0.03
"ex4460",2.40,0.99,0.88,2.82,0.75,3.03,3.86,4.03,2.76,3.34,4.99,3.23,2.62,2.29,0.81,1.83,0.24,0.02,-0.17,0.11,-0.02,-1.19,1.15,-0.06,-2.18,-1.33,0.34,-0.37,0.99,-0.45,0.78,-1.17,-2.05,-0.80,-0.12
"ex4461",-0.47,-0.43,-0.74,1.46,1.04,3.22,6.79,4.05,2.17,4.68,3.68,1.74,1.18,0.51,-0.69,-0.52,-0.15,0.25,-0.28,1.57,0.03,-0.09,-0.01,0.85,-1.58,0.05,-0.25,-0.67,1.41,1.00,-3.06,-1.65,-1.05,1.22,-1.22
"ex4462",0.13,-0.01,-0.61,0.50,1.93,2.07,5.24,4.03,5.54,4.46,5.71,5.09,3.35,4.25,0.13,1.03,-0.27,0.46,0.16,0.40,0.60,-0.90,0.05,1.54,-0.24,-0.13,1.28,-0.02,0.37,-0.97,0.28,1.35,-0.72,-1.06,1.10
"ex4463",0.31,2.78,2.16,3.23,5.55,5.91,4.72,2.97,4.99,2.59,1.69,1.19,-0.37,-1.40,1.29,-0.22,0.33,0.46,0.96,-0.45,1.26,-0.22,-2.34,-1.25,0.71,0.14,0.89,-0.41,0.22,0.84,-0.28,-0.43,-0.87,-0.30,1.38
"ex4464",-1.45,-0.73,1.08,-0.19,2.55,3.09,4.31,1.76,1.30,2.56,2.05,3.09,1.47,1.43,2.94,2.76,2.28,3.70,1.19,0.67,0.23,0.18,-0.78,-0.76,1.58,0.01,-0.18,-0.35,-0.31,0.35,-0.03,-0.39,1.80,-1.83,-0.10
"ex4465",0.81,0.36,0.95,2.70,4.43,5.11,5.56,4.98,1.63,2.53,2.36,0.81,0.89,0.43,0.35,0.98,1.05,1.61,-0.02,-1.03,-1.32,0.56,-0.49,-0.76,-0.70,1.86,-0.45,1.78,-0.13,0.55,-1.59,-1.26,0.71,2.63,-0.74
"ex4466",-1.40,0.11,-0.08,-0.44,-1.41,-0.75,0.21,0.00,0.21,3.52,3.32,5.46,4.92,5.27,3.63,4.97,1.73,2.13,-0.28,-0.32,0.44,0.68,-0.00,-0.64,-1.16,0.16,-0.21,0.69,-0.84,0.73,-0.76,-0.20,0.35,1.31,-0.14
"ex4467",-1.04,0.20,1.03,-0.85,0.39,0.56,3.38,2.52,1.49,-0.05,2.83,3.77,2.72,5.24,6.61,4.00,2.04,1.66,2.50,1.14,-0.74,0.16,0.05,0.76,-0.44,0.34,-0.25,0.95,0.09,0.81,-0.04,-0.66,-0.11,-0.48,-1.21
"ex4468",1.42,0.42,-0.80,2.24,2.31,3.43,3.59,2.63,0.21,1.60,0.54,2.24,1.46,2.23,4.78,5.48,2.38,2.28,1.34,0.96,-0.40,2.07,0.07,-0.12,-0.43,1.48,0.13,1.25,0.65,-0.48,-0.14,-2.18,-0.68,0.63,0.56
"ex4469",-0.58,0.84,1.56,3.01,1.97,1.07,2.40,3.12,1.87,1.63,1.47,0.75,3.68,2.58,4.84,3.97,2.98,1.89,2.93,0.33,0.40,0.35,-0.46,-1.79,-0.92,-1.09,1.42,-0.59,0.83,0.48,1.50,0.72,1.25,0.15,-0.67
"ex4470",0.35,0.09,0.33,1.63,0.37,0.07,2.88,2.49,4.75,5.68,6.18,4.81,4.29,1.94,1.99,1.89,1.68,1.49,-0.67,-0.47,0.38,0.51,2.42,-1.74,0.54,-0.50,1.21,0.91,2.22,-1.08,0.01,-0.54,-0.70,0.97,0.54
"ex4471",1.30,0.82,0.86,2.71,3.70,2.77,2.18,4.66,3.63,5.67,2.92,2.53,0.49,-1.37,0.42,0.86,-1.56,1.29,0.15,-0.89,0.87,-0.09,1.18,-0.49,-1.12,-1.08,-1.39,0.35,1.82,0.92,-0.51,-1.41,0.15,1.71,0.91
"ex4472",0.96,2.11,-1.39,1.06,0.53,1.06,0.21,3.83,2.40,-0.53,1.87,1.94,3.36,3.45,4.35,2.77,2.87,3.67,1.82,0.41,-1.03,1.14,2.10,-0.03,-2.21,-1.01,0.57,0.68,-1.09,0.24,-0.45,-1.36,-0.30,-0.85,-0.54
"ex4473",0.62,-0.71,0.43,2.40,5.77,6.30,4.92,5.38,3.12,3.05,2.86,1.39,2.10,-0.04,1.22,0.63,-1.36,1.14,0.33,-1.63,-1.20,0.91,0.46,-0.50,0.25,0.67,-0.69,0.29,-0.15,0.87,-2.03,-0.02,0.55,-1.12,-0.39
"ex4474",0.15,0.49,1.23,-0.34,1.33,-0.36,3.76,4.48,3.17,4.45,4.75,2.67,2.55,2.80,1.54,0.35,0.48,-0.27,-1.11,-1.16,1.02,-0.23,1.06,0.99,0.08,-1.40,-0.14,-0.06,0.00,1.18,-0.52,-0.71,0.29,1.37,0.39
"ex4475",-0.32,0.62,-0.64,0.60,4.12,6.41,4.84,4.31,3.80,3.98,3.40,2.51,1.78,2.38,0.94,1.80,0.04,-0.10,1.52,-0.85,1.02,-1.53,-0.23,0.04,1.56,1.28,0.96,0.43,-1.01,0.82,1.32,0.01,-0.80,-0.08,0.31
"ex4476",-0.88,0.53,-0.09,-0.33,0.91,-1.06,-0.96,0.67,0.19,1.11,2.60,2.45,4.86,4.33,5.06,6.46,4.53,3.18,2.97,0.49,-2.80,-0.01,-1.20,-1.19,1.36,-0.86,-0.06,0.56,-0.36,-0.16,-1.03,-2.36,1.87,0.03,-1.14
"ex4477",-0.91,-0.07,-0.74,0.72,0.80,2.41,4.01,2.14,4.54,4.86,4.68,3.91,2.94,1.67,1.27,0.50,-0.59,-2.61,3.39,0.11,2.47,0.15,1.09,0.19,-0.45,0.63,-0.90,-0.34,-0.11,1.02,-1.63,-0.77,-0.11,-0.03,0.07
"ex4478",-0.57,1.85,0.73,0.75,2.49,2.48,2.20,3.56,4.51,6.16,6.34,2.77,3.37,2.06,1.53,0.30,-0.18,0.65,0.28,0.22,-1.57,2.44,-0.56,0.47,-1.46,0.00,-1.49,-0.04,0.99,-0.50,0.88,-0.18,-0.23,-0.38,-1.15
"ex4479",-1.06,1.16,-0.10,1.26,0.67,1.59,2.64,1.01,-0.08,3.17,4.44,2.29,2.34,2.94,2.42,2.96,1.66,1.59,2.77,-0.96,-1.02,-2.15,0.74,0.40,0.33,1.82,-0.10,0.81,1.92,-0.44,0.52,0.52,-0.82,-0.73,1.68
"ex4480",-0.07,-0.41,-0.07,1.12,2.26,1.60,3.39,3.26,2.37,3.70,5.14,2.89,4.55,1.83,2.29,0.55,-1.29,-0.14,1.02,1.07,-0.04,0.88,0.83,0.27,-1.64,-0.62,-0.74,0.03,0.83,0.05,-0.55,0.49,0.56,2.43,2.00
"ex4481",0.69,0.28,0.27,-0.72,0.26,1.66,-0.29,-0.31,0.28,0.22,3.95,4.02,3.95,6.04,5.16,4.60,3.71,4.33,1.75,0.06,-0.26,1.17,0.56,0.98,-0.58,-0.65,-0.06,1.22,0.01,-0.58,-1.27,-0.39,-0.04,0.32,0.37
"ex4482",-0.43,-0.59,0.97,0.10,1.82,0.18,-0.13,2.02,2.15,3.63,1.65,3.44,3.23,4.64,4.95,4.27,2.00,3.62,0.91,0.99,0.43,-0.60,0.98,-1.55,1.26,-0.24,0.20,0.17,0.48,-0.11,0.17,0.01,-0.35,0.18,0.91
"ex4483",1.21,0.68,2.57,2.56,3.67,3.49,2.60,3.34,3.05,3.29,2.48,1.89,1.03,2.14,2.28,2.18,0.32,1.26,0.29,-0.95,-1.07,0.53,1.86,-0.08,-0.98,0.26,0.32,1.06,1.15,0.75,-0.19,-0.54,-0.15,1.07,-1.35
"ex4484",-0.65,-1.03,0.87,1.26,0.63,1.90,0.92,2.30,3.51,6.37,5.83,4.74,3.63,1.56,0.77,1.72,1.16,0.43,-0.46,-0.05,0.76,0.02,-0.68,0.47,0.09,0.94,-0.75,1.09,-0.16,-0.73,-0.13,0.01,-0.24,-0.95,-0.11
"ex4485",0.45,0.24,1.31,2.65,1.28,4.23,4.51,4.49,2.93,4.01,2.52,3.21,-0.03,1.12,0.94,-0.18,1.33,1.43,-1.14,-0.62,-1.87,0.05,-0.24,0.16,-0.07,0.49,0.54,0.02,0.99,-0.49,0.23,0.68,-0.72,0.69,-0.27
"ex4486",-0.43,0.08,-0.01,0.20,1.20,0.86,5.43,4.59,5.17,3.98,7.10,3.70,1.79,1.12,1.29,-0.15,0.18,-0.61,1.72,-0.75,0.38,0.84,-0.28,1.57,0.41,1.02,0.37,-0.21,-0.46,-1.42,-0.12,0.21,-0.46,-0.81,-0.64
"ex4487",-0.32,-0.66,-0.32,0.73,-1.37,-0.72,2.92,1.60,3.23,3.67,7.43,6.06,4.67,4.19,1.45,0.45,-0.49,1.85,1.72,0.43,0.87,-0.76,-0.38,-1.00,0.26,-0.55,0.95,0.43,1.41,-0.91,-0.93,-0.26,1.31,-1.00,-1.05
"ex4488",-0.80,0.66,2.52,3.46,2.60,3.90,4.65,5.70,4.16,2.01,2.51,1.63,1.34,0.03,0.85,1.82,-0.66,-0.03,0.48,0.13,0.39,2.19,-1.99,0.10,0.21,0.08,0.12,-0.15,1.05,0.51,0.47,-0.53,1.46,0.83,-2.00
"ex4489",-0.65,-1.74,-0.51,-0.36,-1.99,1.27,4.72,1.24,5.78,4.32,6.84,5.03,2.07,2.17,2.32,0.87,-1.26,0.03,-1.02,-1.43,-0.88,1.53,-0.09,0.52,-2.43,0.32,-0.56,0.06,-0.48,1.05,-0.58,0.71,-0.69,-0.52,-0.48
"ex4490",2.60,-0.12,-0.46,2.73,1.55,3.22,5.96,4.84,4.74,5.48,4.94,3.51,3.13,0.04,-0.25,1.01,0.05,-1.22,0.73,-0.79,0.18,0.94,-0.92,0.70,-1.17,-1.28,0.75,0.52,0.32,0.39,0.50,-0.71,-0.78,-1.14,0.97
"ex4491",-0.08,0.56,3.96,3.12,3.11,5.52,6.47,5.06,2.09,1.46,3.56,0.88,-0.58,1.91,2.49,2.84,-0.65,0.22,3.48,1.24,0.66,-0.27,0.29,-0.25,-1.32,0.65,-0.21,-2.31,0.69,-0.43,-0.27,0.21,0.47,-0.93,-1.33
"ex4492",-1.30,-0.04,1.49,1.70,2.43,5.59,3.34,4.82,5.17,4.37,4.39,0.62,0.53,0.48,1.30,1.68,0.45,0.11,-0.53,-0.06,-0.06,-0.34,-1.87,1.03,-0.04,-0.61,-1.12,1.25,-0.77,0.64,-0.31,-0.28,-0.63,1.00,1.89
"ex4493",1.35,0.52,0.08,0.11,1.62,2.03,3.39,2.56,1.99,2.42,1.49,2.32,2.45,3.42,5.17,3.55,2.40,1.49,0.90,1.58,0.72,-0.50,0.68,0.38,-1.39,1.18,-0.02,-0.86,-0.31,0.12,-0.59,-0.87,-1.08,1.39,0.82
"ex4494",-1.13,-1.14,0.30,-0.98,-0.15,0.27,2.70,0.43,-0.77,-0.38,2.42,3.68,4.83,5.54,6.60,5.41,3.93,1.70,0.08,0.86,0.26,-0.42,0.77,-0.23,-1.14,0.41,-0.48,-1.72,-1.54,-0.34,1.03,0.06,-1.41,-0.24,0.69
"ex4495",-1.16,-0.41,0.13,-1.65,-0.78,2.38,0.35,1.42,3.60,3.46,6.67,4.38,3.72,1.78,0.60,0.49,-1.83,-0.45,1.59,-1.94,-1.08,0.68,0.81,-0.40,1.21,1.14,0.21,0.34,0.30,0.59,1.04,1.22,1.55,-0.95,0.61
"ex4496",0.73,2.07,1.09,2.93,4.43,2.54,3.10,5.41,3.40,0.78,0.95,0.67,1.51,2.39,1.84,1.98,0.99,0.79,-0.11,0.41,-0.80,-0.01,0.04,0.66,0.35,-1.07,0.67,1.00,-0.52,1.37,-0.56,0.16,-0.02,-0.02,-0.14
"ex4497",-1.07,1.13,0.82,1.39,-1.58,0.18,2.46,3.26,4.00,3.73,5.26,3.74,3.00,4.07,4.69,1.08,1.76,0.70,0.68,0.96,-0.71,0.07,-0.06,-0.54,2.38,-0.03,-0.16,0.70,-1.51,0.67,-1.77,-0.48,0.37,-0.07,-1.54
"ex4498",0.35,-0.09,2.44,0.32,-0.43,1.57,0.64,2.10,3.51,3.55,5.14,3.45,2.74,3.58,2.81,2.02,0.86,0.36,1.75,1.29,-0.01,-1.83,-1.23,-0.63,0.29,-0.72,-0.07,-1.63,0.51,-1.12,1.00,1.75,-1.95,-0.41,-1.34
"ex4499",-0.27,1.28,2.17,0.29,2.46,4.31,4.66,5.63,5.51,4.24,3.16,1.42,-0.13,1.24,-1.73,0.17,-0.92,-0.58,1.31,-0.42,0.76,0.12,-0.63,0.23,-0.47,0.94,-0.38,-0.68,-0.39,0.17,0.45,0.94,1.68,0.30,0.54
"ex4500",-0.95,2.11,2.75,2.27,3.05,2.15,5.33,5.64,1.11,2.22,2.18,2.41,-0.97,2.90,2.27,1.49,1.30,1.11,1.18,-0.56,-0.22,1.47,-1.46,0.96,0.08,-0.08,-2.04,1.11,-0.10,-0.02,-0.03,-1.47,0.75,-1.02,-0.18
"ex4501",0.12,0.23,-0.21,4.34,1.04,4.81,4.77,3.77,3.09,4.66,2.49,1.68,-0.33,0.36,1.44,0.85,0.63,-0.98,-0.22,-1.43,0.50,-0.81,-0.87,2.03,-1.17,0.51,-1.50,-0.22,-2.31,0.08,-0.38,1.15,0.18,-1.64,-0.89
"ex4502",0.03,1.53,-1.18,0.64,1.42,0.92,1.41,3.00,4.60,4.44,7.58,3.28,4.35,1.89,2.09,2.23,-0.76,0.04,-1.13,-1.50,0.26,-0.43,-0.16,-0.98,0.31,0.71,-0.57,-0.55,-0.92,0.20,1.41,0.08,-0.61,-0.12,0.66
"ex4503",-0.20,-0.31,-1.19,-1.26,-0.52,0.91,2.01,4.00,4.11,3.75,4.64,5.03,3.24,2.36,1.72,1.03,0.81,-1.18,1.40,1.69,-1.96,0.71,0.70,-0.74,0.95,1.81,0.27,0.12,-0.31,0.84,-0.45,-0.31,-1.36,-0.78,0.05
"ex4504",-0.37,-0.81,0.20,-0.21,1.42,1.47,4.60,5.48,4.72,4.46,2.62,3.44,4.86,2.01,1.56,2.28,-1.07,0.56,-0.38,0.17,-0.74,1.59,0.34,-0.90,0.67,0.81,-0.23,0.05,0.38,-0.09,-0.23,0.34,-0.33,-0.11,0.69
"ex4505",0.92,-0.20,2.33,2.10,1.31,2.77,5.40,1.97,3.13,2.57,3.80,1.57,1.41,1.62,0.44,1.64,3.69,1.35,-0.10,1.50,0.81,0.49,0.83,0.05,1.65,1.89,-0.89,-0.43,-0.15,0.50,-0.36,-1.35,0.98,1.73,-1.36
"ex4506",1.02,0.40,1.90,3.63,3.06,3.29,6.16,4.71,5.74,4.54,4.11,4.70,2.54,1.23,1.94,-0.16,-1.86,-0.85,0.30,1.71,1.14,-0.32,-0.34,-0.22,-0.59,-0.30,0.35,-0.52,0.72,-1.55,0.49,0.50,-1.15,-0.07,-0.07
"ex4507",-0.14,-0.06,2.37,1.30,3.40,4.38,4.53,4.71,2.98,3.78,3.86,4.41,3.24,2.09,1.28,1.98,-0.82,0.80,0.95,-2.57,1.07,-1.41,-0.41,0.86,1.53,1.10,-1.50,-0.89,0.60,-1.44,0.30,2.21,0.82,1.17,0.02
"ex4508",-0.13,0.70,0.56,1.31,4.60,2.70,5.00,3.98,3.41,2.79,2.79,3.39,0.92,1.65,-0.50,1.85,-0.81,-0.14,1.43,1.93,-0.26,0.10,-0.05,-0.41,1.77,1.12,-0.78,-0.45,-0.23,0.08,0.93,-0.16,0.37,-0.70,-1.31
"ex4509",0.65,-0.37,-1.26,-0.91,0.99,1.00,1.29,0.39,0.77,2.55,3.53,4.11,3.83,5.63,4.33,4.81,3.12,2.02,0.80,0.16,0.88,-2.26,0.06,-0.85,-1.60,-2.53,-0.16,0.40,-0.95,0.64,0.10,0.35,-0.16,0.58,0.05
"ex4510",0.93,-1.53,0.26,0.72,-1.21,0.32,0.12,1.25,0.32,0.43,0.42,3.64,4.09,6.04,4.39,6.27,3.98,4.19,3.59,0.22,0.99,-2.20,1.02,0.81,0.85,-0.08,-0.66,0.23,-0.53,0.35,-1.36,-0.33,2.27,-0.38,1.12
"ex4511",0.82,1.32,0.02,0.16,-0.36,-0.03,1.84,0.69,2.08,3.25,3.91,2.69,4.69,4.97,5.19,3.48,3.80,2.02,0.91,0.90,0.98,1.37,-0.18,-0.42,-0.62,-0.45,-0.54,0.79,-2.41,0.72,0.55,0.18,0.32,0.64,1.04
"ex4512",0.49,-0.37,-0.66,1.68,2.33,1.92,4.09,2.12,3.36,4.43,4.05,5.14,3.01,2.17,0.45,0.91,0.14,-0.25,1.73,0.30,-0.64,-0.18,-0.73,-0.49,1.56,0.45,0.25,0.76,1.19,-1.15,1.00,-1.04,-1.80,0.19,1.86
"ex4513",-0.87,0.29,-0.34,1.68,-1.19,1.91,-0.02,0.34,1.47,3.47,3.31,3.51,3.26,0.65,4.14,0.69,1.47,1.37,1.43,0.18,0.25,1.68,1.81,0.74,-1.27,0.54,-0.51,-0.02,0.31,1.32,0.60,0.44,-0.06,-1.42,-1.34
"ex4514",0.58,-1.01,-1.60,0.03,0.44,-0.16,1.56,1.53,3.92,4.11,4.67,5.93,3.90,3.19,1.78,2.05,1.26,0.12,0.50,0.41,0.36,0.93,-0.93,0.10,0.04,0.27,0.56,0.33,-0.80,-1.29,-0.24,1.72,-0.36,-0.62,-0.33
"ex4515",1.27,1.06,2.50,2.31,3.18,5.52,3.16,3.31,2.66,0.82,2.30,2.60,2.85,1.66,2.30,1.45,0.88,1.53,2.63,1.11,-1.20,-0.26,0.73,-0.48,0.08,-0.36,0.52,1.53,-0.15,1.76,-1.33,0.05,-0.74,-1.04,0.18
"ex4516",-0.26,1.38,0.32,1.63,2.80,1.00,-1.45,1.14,0.50,1.42,3.89,4.67,1.95,6.00,6.00,3.87,2.17,2.41,2.66,1.36,0.65,-1.69,1.08,0.20,0.13,-0.23,0.12,-0.44,0.86,-0.28,1.44,1.23,-1.32,0.63,0.63
"ex4517",-1.07,-1.02,-0.57,-0.08,1.24,2.45,3.75,1.99,4.13,3.83,6.34,5.47,2.84,2.37,1.08,1.29,-0.39,0.60,-0.23,-0.79,0.30,-2.91,-1.71,-0.12,1.05,-0.85,-1.18,1.36,0.83,-1.06,-1.40,0.87,-1.09,2.57,-0.69
"ex4518",1.31,-0.64,-0.11,0.24,0.94,0.32,2.22,1.93,4.01,3.23,4.25,3.87,4.62,1.77,2.95,2.65,0.58,0.61,1.18,0.77,2.73,-1.28,2.39,-0.31,0.93,0.26,-0.20,1.11,0.10,1.61,-0.62,-0.48,0.93,0.29,-0.63
"ex4519",-0.60,-0.60,1.57,1.29,1.11,4.00,1.59,2.11,2.76,5.13,4.21,3.15,5.01,3.84,3.12,2.80,0.42,-1.34,-0.42,0.62,-0.14,-0.32,-0.09,0.50,0.11,-0.81,0.07,-0.83,0.92,-0.08,0.28,0.48,-0.42,0.47,0.11
"ex4520",2.36,2.48,0.11,-0.96,-0.54,0.45,1.85,4.00,4.20,2.46,4.70,6.20,4.65,3.38,3.12,1.17,1.71,0.71,0.93,-0.27,-0.34,0.11,0.45,-1.33,0.66,-0.04,1.27,-0.22,0.02,-0.88,1.16,-0.64,-0.13,-0.75,0.25
"ex4521",0.41,-0.98,0.73,-1.07,-0.11,0.24,0.53,-0.28,-0.22,0.54,2.99,2.41,3.47,3.12,5.73,6.06,5.46,3.01,1.45,1.93,1.34,-0.35,-1.87,1.58,-0.99,0.94,-1.60,1.87,-0.53,-1.18,-1.18,-1.07,0.57,0.39,-0.60
"ex4522",1.02,-1.07,1.74,-0.37,0.10,1.31,0.54,0.30,-1.60,2.17,3.08,2.81,2.83,3.72,3.92,3.24,4.54,2.70,2.26,0.12,-0.73,1.06,-0.60,-0.05,-0.73,-0.05,0.38,0.56,1.31,-0.24,0.40,0.76,-1.50,2.44,0.45
"ex4523",0.09,1.37,1.48,2.69,2.84,3.56,4.36,3.94,2.51,2.55,0.01,0.87,0.78,0.42,1.15,0.83,-0.32,0.05,-1.42,-1.19,-0.95,-0.21,1.73,1.25,-0.83,-0.47,1.19,-1.20,0.13,0.92,-0.13,-0.28,0.80,-1.17,-0.06
"ex4524",2.09,0.40,0.53,1.57,2.25,2.24,2.55,1.71,-1.04,2.12,3.95,1.41,2.05,1.58,4.23,1.80,0.46,1.09,1.95,1.09,-0.66,0.84,-0.46,-0.63,0.20,0.08,-0.42,-0.18,1.31,-1.23,1.00,-0.46,0.98,0.73,0.28
"ex4525",1.31,0.26,0.99,3.52,2.40,4.39,3.19,4.30,2.04,5.08,1.69,1.19,1.98,1.29,-0.51,-0.98,-0.42,-0.20,-1.64,-0.75,-1.20,1.83,0.11,-0.27,2.05,-1.02,-1.14,0.45,-0.46,-0.77,0.52,-0.75,0.20,-0.14,-0.49
"ex4526",-1.28,1.61,1.80,1.18,2.92,3.99,5.19,6.06,2.53,5.42,0.39,1.99,2.85,-0.21,1.13,-1.29,-0.85,-1.17,-0.06,0.87,-0.65,0.91,-0.38,0.01,-0.42,-0.05,-0.02,0.12,0.07,-0.20,1.19,-1.09,1.11,-0.71,0.18
"ex4527",-0.28,-0.32,3.28,3.63,2.39,4.16,5.85,4.11,4.51,3.91,2.26,1.53,0.93,1.80,1.84,1.04,-0.75,0.99,1.03,-0.73,-0.75,0.86,-1.76,0.89,0.01,-0.33,0.53,-0.95,0.33,-0.64,-1.11,-0.19,0.00,-0.04,1.47
"ex4528",1.95,-0.27,0.79,0.83,-0.52,-0.14,1.51,1.10,1.09,1.28,3.25,4.02,1.79,3.88,4.22,4.26,3.21,3.81,2.57,1.81,-1.22,-0.26,0.87,2.08,-0.86,-0.22,-0.30,0.63,0.04,-0.14,-0.49,0.29,-1.41,-0.54,0.41
"ex4529",-1.12,-0.29,1.44,0.71,0.75,-0.66,1.15,0.33,-1.42,1.27,2.10,2.25,3.08,4.61,6.39,4.33,5.00,4.96,0.48,0.56,-0.08,-0.11,0.09,-0.17,-0.39,1.76,-0.85,-2.34,0.40,0.14,-2.00,-1.35,-0.81,2.45,-0.41
"ex4530",-0.47,0.11,-0.39,-0.07,1.37,1.64,3.57,2.79,3.96,6.18,3.21,4.48,1.91,0.11,2.88,-0.88,0.09,-0.02,0.57,1.46,0.22,-0.14,1.25,0.17,0.97,-1.52,1.27,0.59,-0.77,0.38,0.29,0.44,-1.32,-0.26,0.75
"ex4531",0.36,2.22,3.19,3.98,2.03,5.93,3.03,4.76,6.63,3.63,3.42,0.05,-0.14,1.65,-0.18,-0.61,1.16,-0.08,-0.76,1.06,-1.05,0.12,0.98,0.89,0.09,-0.68,0.72,0.99,0.33,0.69,0.10,-1.65,-0.00,2.37,-0.53
"ex4532",0.44,-0.77,1.49,2.04,1.49,1.23,2.70,3.98,2.89,2.83,1.42,1.81,2.04,2.54,4.96,2.65,1.69,1.06,1.77,1.84,-0.69,0.39,-0.07,0.25,0.94,-0.89,-0.22,0.45,-0.12,-0.76,-1.19,-1.11,-1.31,1.81,-0.04
"ex4533",0.48,-0.33,-0.13,1.05,0.89,1.40,-0.73,-0.04,2.44,1.93,3.05,1.44,3.72,5.35,7.13,5.75,5.77,1.73,2.43,-0.34,0.83,-0.87,-0.48,-0.99,-0.24,-0.67,1.93,1.47,0.47,1.59,0.34,-0.76,-0.96,-1.11,-0.93
"ex4534",-0.68,0.72,1.54,3.36,4.09,4.33,7.87,5.18,5.33,2.37,0.46,0.92,0.12,-0.25,-0.07,-0.14,-0.42,0.41,-0.88,-0.91,-0.49,1.25,1.37,-0.65,0.00,1.38,0.42,0.15,-0.29,-0.07,1.05,-1.24,0.56,0.63,1.48
"ex4535",-0.94,0.37,0.24,0.67,-0.71,0.69,0.15,2.10,1.12,3.23,4.07,2.27,4.05,2.53,4.45,1.63,2.00,0.40,0.05,-2.10,-1.61,-0.35,0.93,0.59,-0.04,-1.51,0.53,0.13,0.63,2.30,1.22,2.73,1.25,-1.33,0.96
"ex4536",1.07,-1.20,0.34,2.06,-1.10,1.37,0.61,2.48,4.21,2.28,5.50,4.29,5.18,3.73,2.30,1.25,-0.31,-0.12,-1.66,1.02,0.13,0.22,2.87,1.54,0.89,-1.03,0.33,0.11,-0.22,-0.92,-0.15,-0.37,1.24,-1.02,0.43
"ex4537",-2.35,0.18,0.62,-0.01,2.30,3.94,2.92,4.19,3.73,3.71,4.67,2.96,2.07,1.08,-0.20,1.47,-0.66,-1.39,-0.86,-0.20,0.06,-0.63,0.07,-1.08,-0.31,-0.70,3.85,-0.38,-0.31,1.51,-0.21,0.24,-1.20,1.43,-0.03
"ex4538",0.61,-0.06,0.80,1.79,2.69,1.00,2.26,2.40,2.91,5.82,3.96,6.41,4.79,3.09,1.47,1.72,-2.74,0.40,-0.27,-1.44,-1.10,-1.54,0.73,0.34,-0.77,1.50,-0.22,-0.40,-1.91,2.19,1.64,0.41,0.77,0.64,0.13
"ex4539",2.11,-0.93,-1.15,0.15,0.28,-0.12,2.20,3.10,0.04,2.35,5.18,3.72,4.16,4.26,4.67,2.86,1.32,1.74,0.47,0.64,0.43,0.53,0.91,1.00,0.32,-1.03,2.03,0.58,0.60,-0.35,0.62,-0.09,1.25,-0.12,0.29
"ex4540",-0.19,-0.63,-0.82,0.37,2.74,1.54,0.96,-0.20,0.46,1.07,1.60,2.83,3.01,4.31,3.89,5.16,4.57,1.51,0.23,1.09,0.06,1.64,-0.21,-0.55,0.18,0.89,-1.29,0.31,0.52,0.74,0.83,-0.78,0.20,-0.10,0.32
"ex4541",0.35,2.71,1.45,2.81,4.05,3.60,5.46,5.51,0.72,1.92,1.72,2.28,0.14,3.29,1.96,1.36,0.62,-0.38,0.56,-0.76,0.42,-0.08,-0.98,-0.24,0.23,-0.33,0.44,-0.96,-0.49,0.80,0.28,0.34,0.86,0.35,0.79
"ex4542",0.51,-0.40,0.34,-1.23,0.49,1.61,2.64,2.65,1.48,6.11,4.32,5.79,2.84,1.75,1.61,0.90,-0.83,1.09,0.71,-1.20,-0.40,0.13,-1.01,-0.78,1.83,-0.73,0.35,-0.42,0.64,-2.32,0.25,2.93,-0.13,-1.22,1.99
"ex4543",-1.04,0.57,0.87,1.09,2.17,2.55,1.70,2.30,1.72,1.52,2.12,1.98,2.04,1.85,2.55,2.54,3.40,1.36,2.01,-0.19,-0.53,0.57,2.22,1.56,-0.44,-1.62,1.37,0.56,1.76,-2.62,2.08,-1.21,0.83,1.66,0.19
"ex4544",-0.37,0.08,0.90,1.81,2.51,2.24,3.89,3.75,5.01,2.43,1.98,3.16,1.36,0.15,3.87,2.49,3.60,0.67,0.13,-0.16,-0.67,-0.81,-1.28,-0.20,0.33,1.28,0.57,-1.06,-0.87,-0.94,-1.60,-1.13,-0.37,0.50,0.33
"ex4545",-0.85,0.64,-1.37,0.73,-2.54,0.25,-0.37,0.14,1.13,2.83,2.03,4.02,3.98,5.04,4.93,4.95,4.62,3.38,1.70,-0.30,0.94,-0.44,0.13,-0.10,-0.09,-0.53,-0.76,-0.71,0.39,-0.04,0.80,-0.70,-1.38,0.71,-0.20
"ex4546",-0.95,-0.25,0.50,1.10,0.99,3.11,2.72,1.97,1.90,3.18,4.16,1.96,2.15,2.48,3.92,2.88,1.61,1.76,0.61,1.05,0.91,0.48,-1.14,-2.33,0.85,-1.02,0.38,0.69,0.54,-1.40,0.96,-0.62,1.84,0.75,-0.25
"ex4547",1.03,2.96,1.60,1.83,3.01,4.82,4.17,5.99,2.85,3.73,2.33,0.14,1.49,1.26,-0.60,0.63,-1.27,-1.02,-0.63,2.43,1.05,-0.55,0.95,-0.66,-1.53,0.09,0.43,1.15,-0.24,0.67,1.18,-1.37,-3.36,0.51,-0.01
"ex4548",0.59,0.26,0.15,1.79,-1.78,0.42,2.25,1.97,2.22,4.26,3.47,4.49,3.62,5.03,3.29,1.82,-0.10,0.43,1.12,1.04,-0.24,0.11,0.72,0.14,0.24,-0.37,-0.75,-0.46,-0.29,-0.57,-0.19,1.90,0.03,1.19,0.80
"ex4549",-0.21,1.11,1.69,2.10,3.81,5.13,6.61,3.96,3.20,3.01,1.56,2.06,0.89,1.10,0.06,1.38,1.13,3.03,1.87,-0.96,-0.80,-1.40,-0.32,-0.60,0.02,1.27,0.63,-0.29,-1.04,0.61,1.13,0.81,1.25,-2.16,0.23
"ex4550",-0.58,-0.17,1.29,1.31,0.66,0.65,0.59,2.53,4.38,4.49,5.37,3.94,1.29,2.29,0.85,1.37,-0.50,0.54,-0.50,-0.51,-1.79,0.03,-1.52,-0.07,1.21,-0.68,0.29,0.84,0.54,-0.12,-1.81,-1.41,0.45,1.13,1.04
"ex4551",-0.39,2.23,0.35,-2.19,-0.68,-0.43,0.11,0.30,-0.42,0.45,3.55,3.11,5.46,5.28,4.59,4.32,1.97,1.00,2.03,0.96,0.97,-1.97,-0.85,-0.02,-0.30,0.22,-0.73,0.04,0.28,-1.01,-2.04,2.11,2.33,-2.73,2.27
"ex4552",0.49,0.49,1.32,1.10,1.65,0.53,3.57,2.17,5.20,2.75,3.95,4.96,2.16,1.18,0.31,0.27,2.58,1.26,-0.60,1.38,-0.62,1.09,-0.07,-0.28,-0.92,-0.40,-0.79,-0.43,-0.37,0.58,-0.11,-1.36,-0.16,-0.57,-1.53
"ex4553",-1.26,0.33,0.61,3.03,0.07,3.54,2.43,3.19,4.49,5.44,4.77,3.81,1.38,2.90,1.56,1.40,-1.20,0.38,-0.27,-1.88,0.31,0.48,0.39,-0.56,-0.44,-0.64,-1.12,-0.24,-0.99,1.50,-1.19,-1.18,-0.61,-0.45,-0.42
"ex4554",-0.73,-0.25,-0.72,0.84,1.09,2.28,2.90,1.88,4.25,3.95,6.71,4.47,2.00,1.18,2.94,-0.41,1.50,-1.15,0.10,-0.53,-1.49,0.81,0.53,0.09,-0.06,-0.54,0.12,0.33,-1.17,-1.31,1.48,0.04,2.88,0.70,-0.81
"ex4555",-2.18,0.16,1.93,3.34,4.04,3.47,2.66,4.31,3.07,1.97,1.35,0.77,0.57,-0.47,1.50,-0.71,0.48,1.45,-1.64,0.74,-0.44,-0.73,-0.56,0.92,1.56,-0.23,-0.10,1.41,0.60,0.01,-0.42,1.17,-0.39,-0.21,0.05
"ex4556",0.05,1.56,2.21,3.03,3.80,4.82,5.13,5.00,3.62,1.49,0.41,0.86,-0.12,0.77,0.66,-0.74,0.29,-0.75,1.19,0.37,0.52,0.79,0.31,-1.30,-0.93,-0.66,-1.19,-0.44,0.73,0.88,-1.69,-0.55,0.28,-0.34,-0.69
"ex4557",-0.94,1.13,-0.75,-1.48,-0.00,0.35,1.26,0.33,0.91,4.09,4.72,3.81,1.53,4.18,4.15,3.38,2.57,4.48,0.20,0.43,-0.15,0.90,0.66,-0.23,0.32,0.55,-0.92,-1.52,0.33,-0.71,-1.09,0.08,-0.41,1.01,0.11
"ex4558",-0.40,1.59,2.90,2.95,3.39,4.21,4.74,3.58,4.23,3.60,3.97,2.68,2.33,1.22,1.30,1.40,-1.26,2.58,0.69,-1.79,0.20,-2.65,-1.19,0.26,1.41,-0.58,-0.53,-0.31,1.36,0.54,0.22,-1.15,-0.07,-2.09,-0.88
"ex4559",-0.52,0.94,1.35,1.31,2.20,4.27,3.11,4.08,3.07,3.27,4.68,3.94,3.12,2.09,2.66,1.07,0.16,-0.81,-1.05,-0.98,-1.85,1.63,0.33,1.24,-0.04,-0.19,-1.72,-0.43,-0.02,0.82,-1.21,-0.49,0.68,0.50,-0.26
"ex4560",0.18,-1.88,3.33,3.23,5.18,5.84,3.04,4.21,3.43,2.35,0.63,0.64,1.39,1.49,-0.31,1.01,1.90,0.57,-0.68,0.96,-0.99,0.39,1.86,-0.51,-0.04,0.48,-0.82,-0.20,1.25,0.27,-0.17,1.13,0.26,0.91,2.10
"ex4561",0.33,-0.65,0.18,0.15,1.42,-0.92,1.20,0.76,1.57,1.66,2.26,3.71,3.80,4.72,4.95,3.02,3.79,2.55,2.01,-0.12,0.41,1.13,-0.33,-2.09,-0.89,0.72,-0.03,-1.31,-1.32,-0.00,1.20,0.86,-0.44,1.50,1.55
"ex4562",-2.36,0.56,0.69,-0.88,-0.45,1.00,-0.77,1.39,4.21,3.88,4.44,3.43,3.13,5.82,2.14,2.49,2.50,1.65,0.86,1.43,0.92,-0.38,0.61,0.11,0.40,-0.20,0.17,-1.05,0.38,0.50,-0.21,1.44,0.56,-0.13,-0.35
"ex4563",0.71,-0.15,-1.91,2.01,-0.34,-0.31,0.78,1.73,0.37,0.01,2.12,3.61,6.20,2.54,7.79,4.81,3.22,2.44,2.53,1.27,-0.77,1.48,-1.23,0.89,1.04,-0.61,0.02,1.89,-0.68,0.63,1.84,-0.53,1.84,0.87,0.73
"ex4564",-0.56,0.57,0.77,2.43,3.44,3.42,4.19,2.09,3.35,4.78,1.67,2.92,1.18,0.56,1.03,0.80,1.33,-0.45,0.29,-0.99,0.56,0.05,0.25,-1.15,-1.32,-0.11,0.25,0.51,0.23,1.16,-0.82,0.19,-1.37,0.11,0.70
"ex4565",0.16,-0.21,1.49,2.15,2.23,0.80,4.48,2.67,3.66,1.78,1.89,1.22,3.22,3.20,4.97,2.89,1.62,2.60,1.84,1.52,1.03,1.77,0.18,1.76,1.30,-0.90,0.04,-0.84,0.48,-0.54,0.39,-0.90,0.13,-0.90,-1.31
"ex4566",0.61,-0.41,-0.76,-1.06,0.40,2.20,1.51,1.94,-0.51,3.49,2.87,1.02,2.40,3.65,4.27,5.19,2.61,3.39,1.19,-0.95,0.39,0.68,-0.52,0.51,-0.78,-1.05,1.22,-2.69,-0.04,-0.90,-0.94,-0.25,-0.15,-1.54,-1.10
"ex4567",-1.79,1.02,0.46,-1.19,1.15,-0.02,0.72,1.49,-0.11,2.29,2.52,2.17,4.13,4.17,7.05,4.40,1.83,1.78,0.63,1.27,0.73,0.39,1.63,-0.96,1.94,0.90,-0.72,-2.02,1.41,0.72,1.11,-0.48,1.08,1.73,0.32
"ex4568",-0.78,-0.49,1.06,0.14,1.84,-0.10,1.88,2.83,3.53,5.11,5.42,4.17,3.36,3.24,1.56,0.79,1.40,-0.13,0.51,0.24,2.68,-0.94,1.65,-1.15,-1.40,0.28,-0.64,-0.83,-0.49,-1.20,-0.57,0.33,0.91,0.43,1.28
"ex4569",-0.93,2.09,0.08,-0.89,0.07,0.91,1.42,0.74,2.60,3.38,3.42,4.43,5.19,4.55,6.49,3.90,3.79,3.16,1.60,-0.57,-0.90,1.42,0.69,0.13,0.69,1.53,0.15,-1.66,-1.12,1.35,-1.45,-0.29,-0.21,-0.25,-0.18
"ex4570",-1.34,1.29,-0.34,-0.46,1.40,0.90,0.92,0.36,0.43,0.51,2.62,3.11,4.53,5.79,4.42,4.45,3.80,1.86,1.51,2.03,0.03,1.00,1.54,1.11,-0.72,-1.24,0.40,2.18,-0.97,-1.86,1.74,0.04,-0.11,-1.30,0.70
"ex4571",1.11,-0.04,-0.01,0.67,0.85,0.10,1.80,0.36,-1.64,0.16,1.37,3.85,4.44,5.51,5.43,4.04,2.38,3.69,-0.46,-0.44,-1.05,-0.51,0.57,-2.68,1.19,-1.10,-0.15,0.36,-1.82,-1.79,-1.16,-0.50,-0.29,0.15,0.88
"ex4572",2.54,-0.34,3.86,1.12,3.67,5.19,3.43,3.51,3.16,2.11,2.46,3.14,-0.39,0.97,1.17,0.29,1.54,0.12,-0.28,0.62,-0.65,-1.26,0.85,-0.39,0.32,-0.24,2.93,1.91,-1.26,0.07,1.62,0.59,0.40,0.09,0.22
"ex4573",0.66,0.86,0.32,1.81,2.04,4.95,4.96,2.61,2.22,3.18,1.81,0.44,1.88,0.41,1.94,-0.12,1.35,1.06,1.11,0.45,-0.17,-0.51,0.39,0.19,0.89,-0.81,0.71,-0.58,0.69,-0.34,-1.09,0.22,-0.18,0.28,-0.85
"ex4574",0.76,-1.03,-0.05,0.83,-0.10,-0.05,1.70,1.18,-0.72,2.11,0.70,6.01,3.80,4.50,6.20,5.31,4.09,2.90,2.09,0.84,-0.14,2.00,-1.31,-0.43,-0.16,-0.96,-1.35,-1.29,-1.77,0.84,-0.79,0.49,0.43,-2.53,-0.46
"ex4575",-1.38,-1.00,-0.68,0.70,-0.06,1.55,0.63,2.39,1.38,1.24,0.54,2.45,2.38,6.29,5.92,6.19,3.13,3.05,1.37,0.63,-0.21,0.83,-0.45,0.99,0.51,0.06,-0.86,1.65,0.54,-0.20,-0.28,0.51,0.24,-0.68,-2.67
"ex4576",-0.39,0.23,0.48,0.29,-0.75,-0.02,-0.80,0.51,-0.40,0.23,3.47,6.07,5.61,5.52,4.53,4.24,2.63,2.78,2.09,0.22,-0.44,0.07,-0.60,-0.51,2.45,-0.48,-0.10,2.27,0.27,-1.78,0.86,-2.35,0.13,0.57,0.96
"ex4577",0.39,0.23,1.54,0.12,1.29,2.18,4.14,3.65,3.64,5.61,4.16,2.47,0.55,0.43,1.39,-2.00,-0.55,0.10,1.72,1.09,1.63,-0.31,-0.39,-0.58,-0.68,-0.23,-1.25,0.01,-0.09,-0.27,-0.96,-0.14,-0.89,-1.61,0.02
"ex4578",0.17,1.18,0.07,-0.01,-0.31,0.40,-1.11,0.89,-1.17,2.10,1.39,3.05,3.40,6.57,5.07,6.01,4.80,4.10,1.81,0.44,-1.41,-0.72,0.16,1.00,0.33,-0.21,-0.63,-0.47,-1.75,0.77,0.61,0.88,-1.50,-0.10,0.76
"ex4579",0.28,0.94,-0.40,0.45,-0.46,0.87,1.36,3.16,2.14,2.41,3.79,5.61,3.10,2.88,3.17,0.97,1.14,0.75,-0.40,-0.83,-0.73,0.71,-1.86,0.42,0.33,0.01,-0.25,-1.69,0.37,0.03,0.42,-0.35,0.34,1.14,0.61
"ex4580",-1.25,0.41,1.02,0.05,0.72,0.33,0.01,-0.85,1.16,2.19,2.99,3.25,2.50,4.37,7.50,6.47,4.11,2.90,2.46,-0.81,0.37,-0.31,0.98,2.01,0.13,-1.73,-1.08,-0.79,-1.62,-0.54,0.91,-1.16,0.10,2.19,-0.01
"ex4581",-0.33,-1.76,-1.46,-1.41,0.07,1.46,0.69,1.40,0.54,4.76,4.70,6.41,2.08,4.50,1.11,1.38,0.50,-0.48,0.94,0.24,0.49,-1.11,-0.60,-0.26,-0.47,-0.99,-0.19,-0.53,0.75,-0.16,0.97,-1.44,-0.31,-0.88,-0.52
"ex4582",-0.44,-0.48,0.72,1.24,2.54,2.26,4.99,2.15,2.74,2.57,2.91,0.96,3.36,1.79,3.65,0.07,2.31,3.58,0.20,-0.16,0.37,-0.23,-0.04,0.26,0.60,-1.00,-1.30,0.24,0.53,1.84,0.33,-0.68,0.66,-0.37,1.25
"ex4583",-0.07,0.73,-0.44,-0.05,-1.25,0.17,0.42,4.63,5.14,2.70,4.59,3.31,5.15,3.91,2.61,0.39,1.33,0.18,-0.14,1.15,1.02,0.11,-0.17,1.46,2.41,0.86,0.90,2.18,-1.01,0.29,-0.56,0.43,0.64,0.01,-0.37
"ex4584",-0.92,-0.05,-0.81,-0.94,1.50,2.44,1.08,3.56,5.34,5.26,6.16,5.74,3.87,3.43,2.73,0.16,-0.24,0.21,-1.39,0.30,-0.76,-0.49,-0.54,0.88,0.68,-0.01,-0.31,0.19,-0.61,0.41,-0.55,-1.01,0.73,-0.40,-0.56
"ex4585",-0.09,0.61,0.90,1.40,1.04,5.00,5.04,3.84,4.59,2.69,0.42,-0.99,-0.02,-0.27,2.42,0.95,0.67,-0.59,-0.39,-1.73,-0.85,-0.60,-0.85,-1.25,-0.29,-0.50,-0.27,-0.82,0.76,0.43,-1.04,-1.50,0.80,0.53,-0.32
"ex4586",-1.84,-0.87,-0.00,1.68,-0.18,-0.02,1.97,0.09,0.07,1.10,0.43,2.28,4.50,3.53,4.99,5.18,3.37,3.56,3.13,1.38,1.69,-2.41,-0.42,-0.53,0.62,1.40,-0.40,0.96,-1.05,-1.33,-0.27,0.96,1.21,0.84,-0.50
"ex4587",0.75,0.21,0.59,2.13,2.17,1.33,0.26,2.55,1.91,2.96,2.06,2.36,2.86,2.87,2.56,1.43,2.91,1.05,2.10,-0.66,-1.29,-0.79,-0.07,0.15,-0.90,-0.30,-1.90,0.84,-1.08,0.70,1.59,-0.19,-0.71,-0.16,-1.31
"ex4588",0.22,0.15,0.26,2.19,3.30,1.80,2.44,4.11,2.23,1.91,3.05,3.05,3.18,2.95,2.67,2.66,1.89,2.29,0.94,1.00,0.48,0.52,0.88,0.58,-1.04,0.88,-0.38,1.92,0.49,-0.78,1.10,0.46,-0.11,-2.12,0.69
"ex4589",0.23,0.14,0.82,1.77,1.20,-0.51,1.36,1.19,4.52,5.78,4.82,5.32,2.33,3.96,4.30,2.13,0.65,0.67,0.98,1.61,0.30,-0.73,-0.72,-1.46,1.24,1.41,0.06,0.65,-0.94,1.94,-0.08,-0.05,-0.52,-0.03,-0.36
"ex4590",0.62,0.71,1.42,1.73,4.11,2.89,4.04,3.99,3.13,1.79,0.47,2.26,1.20,1.84,2.56,1.57,0.16,-0.29,1.21,0.36,-0.18,-0.62,1.62,-1.40,0.66,-0.15,0.29,1.38,-1.30,0.24,0.98,1.08,0.74,-1.17,-0.04
"ex4591",0.61,0.15,1.03,0.58,1.69,2.18,1.72,2.63,0.52,1.38,3.13,1.40,3.58,4.62,3.41,4.54,2.19,1.07,3.08,0.22,-0.17,0.14,-0.16,1.69,0.53,-0.23,-0.04,-0.02,-1.36,0.50,0.43,1.50,0.16,-0.95,-2.55
"ex4592",-0.18,-0.71,1.62,3.44,3.03,2.65,3.99,2.56,0.73,1.35,0.94,2.04,3.23,2.05,2.99,2.37,2.53,1.63,2.33,0.88,-0.71,0.33,1.15,-1.31,-0.29,-0.41,-1.34,-0.61,-0.49,0.73,0.08,0.57,1.51,-0.16,-0.57
"ex4593",0.02,0.73,-0.40,-0.58,-1.66,-0.33,4.17,4.37,5.60,5.86,5.86,4.33,3.35,1.13,0.41,-0.24,-1.37,0.01,-1.03,0.36,0.48,-1.04,1.03,-0.20,-0.30,-0.60,-0.90,-0.28,-0.67,1.76,-0.00,0.97,1.19,0.44,0.62
"ex4594",0.20,1.69,2.45,1.87,4.48,4.57,5.60,4.22,2.50,4.43,2.84,1.82,1.10,0.91,0.73,2.18,-1.48,-0.51,-0.69,1.95,-1.43,-1.11,-0.03,0.18,1.69,0.48,-0.38,0.52,1.08,0.35,-1.15,-1.28,0.71,1.11,0.65
"ex4595",0.34,1.42,3.90,3.33,2.58,4.56,5.74,5.35,4.34,2.97,1.86,1.16,1.83,-0.15,0.75,0.06,-1.05,-0.91,-0.61,1.99,1.13,-1.43,1.73,1.89,-1.09,-0.60,-0.10,-2.02,-1.40,1.16,0.94,1.65,-0.73,-0.15,2.21
"ex4596",1.31,0.33,1.60,2.90,3.91,3.12,5.00,4.95,3.42,2.12,3.65,1.03,2.10,1.76,0.71,-0.60,1.66,1.31,-1.44,-0.48,0.50,1.37,-0.44,0.79,-0.83,0.40,-0.10,-0.52,0.69,0.97,0.32,0.77,0.30,-0.64,-1.18
"ex4597",-1.52,0.12,2.79,0.76,2.45,3.27,4.01,4.24,2.21,4.00,3.46,2.68,4.12,1.63,1.85,3.05,-0.25,-0.01,-0.31,0.31,0.58,1.23,0.98,0.68,-0.01,1.13,0.18,0.25,1.25,1.69,-0.58,-1.11,0.26,0.20,0.92
"ex4598",0.92,2.88,1.40,1.98,2.86,4.88,4.53,4.70,2.59,3.60,0.52,0.55,0.61,0.22,1.65,0.96,1.53,0.16,0.08,-2.26,-0.02,-0.58,-0.07,1.07,0.38,0.95,1.01,2.49,-0.40,-1.30,0.70,0.81,-0.45,0.85,-0.72
"ex4599",1.21,0.09,0.38,1.89,3.87,1.94,3.84,3.45,3.24,3.82,3.27,1.79,1.26,1.85,0.03,1.16,0.09,-1.10,1.26,-0.12,-1.68,2.81,-2.34,1.56,-0.95,0.24,-1.37,-0.44,0.85,0.00,-1.09,0.54,1.07,-0.88,0.78
"ex4600",-0.50,-0.84,2.13,0.82,3.39,1.58,3.13,2.09,3.19,3.00,2.87,3.78,4.61,0.38,0.69,0.47,0.16,0.99,1.14,-1.45,-0.16,-1.40,-0.34,-1.18,-0.18,0.11,-0.94,1.13,-0.78,0.39,0.94,0.97,-2.04,-0.33,-0.43
"ex4601",-0.85,0.15,0.11,1.05,2.20,2.43,3.86,1.81,1.64,2.71,2.98,0.40,2.14,2.13,2.50,2.60,1.66,0.25,-0.53,-0.19,0.38,-1.77,-0.40,-1.15,1.72,-0.18,0.64,0.83,0.20,2.83,-0.84,0.97,0.31,0.74,0.79
"ex4602",0.83,-0.05,1.61,2.06,2.67,3.31,6.43,3.73,3.38,3.31,3.14,1.03,0.19,0.27,1.43,-0.26,-0.49,-1.65,-0.45,0.44,1.16,-1.35,0.68,-0.01,-0.85,-0.59,-0.74,0.24,-1.63,0.19,0.23,0.35,-1.92,1.38,1.85
"ex4603",1.90,1.09,3.12,2.34,3.19,5.32,5.81,4.72,5.16,3.88,3.03,2.90,-1.01,1.91,-0.10,0.60,-0.70,-0.19,-1.53,-1.04,-0.94,-0.64,1.34,0.42,0.21,-0.87,-0.44,-0.46,0.07,-0.08,0.42,1.28,-1.06,0.21,2.05
"ex4604",-1.90,1.30,2.38,3.46,4.73,3.60,5.93,3.70,3.69,2.60,1.11,0.62,-0.58,1.03,1.79,0.53,1.07,-0.62,-0.27,0.06,-0.08,-0.32,0.02,1.20,2.28,-2.09,0.80,0.68,0.00,-0.92,-1.03,-0.45,0.66,1.04,1.07
"ex4605",1.58,-0.14,1.03,-0.35,0.29,0.52,0.69,1.94,5.30,4.44,6.03,4.03,3.22,4.49,1.68,2.75,0.05,-0.25,1.00,1.52,2.25,1.25,1.10,-1.43,0.24,1.23,0.20,-0.34,-0.33,1.05,2.52,1.14,-0.88,-1.99,0.35
"ex4606",1.57,1.81,-0.60,1.38,2.47,4.67,4.79,4.48,2.89,2.09,2.42,1.65,0.52,1.44,3.31,-0.17,1.67,-0.16,1.87,1.85,-2.10,0.44,0.09,0.04,-1.38,0.37,-0.03,-0.66,-1.46,-0.29,0.90,0.89,0.03,-0.23,0.79
"ex4607",-0.07,-1.32,0.24,1.13,-0.04,0.92,-0.48,1.03,3.66,3.94,3.16,3.09,3.96,3.46,4.45,2.11,3.22,1.32,1.41,0.25,-1.53,0.07,-0.47,-0.23,-0.71,-1.19,-2.24,1.14,-1.18,-0.27,0.87,0.51,1.25,-2.63,-2.29
"ex4608",0.10,0.97,-0.54,2.91,1.37,4.58,5.36,5.40,4.09,2.98,3.77,1.63,1.50,-0.74,1.40,-0.89,-0.63,0.39,-1.78,1.40,-0.32,0.71,0.33,-0.41,1.30,-0.52,0.54,0.48,2.50,-1.32,1.88,-0.99,-0.02,-1.98,-0.12
"ex4609",-0.18,1.63,2.48,0.78,2.03,1.91,4.52,3.88,3.57,3.61,3.81,3.46,0.02,-0.47,0.64,-0.61,-0.63,1.51,0.88,1.46,1.01,-0.05,-0.74,0.28,-0.45,-0.23,0.95,0.43,1.54,-2.86,0.63,0.38,0.40,-0.45,-0.75
"ex4610",0.77,-0.04,0.10,-0.60,-1.04,0.03,1.59,4.08,3.57,5.12,6.82,4.51,4.17,2.60,1.71,2.18,-0.93,0.51,0.98,0.76,-0.54,1.02,-0.35,-0.23,1.12,0.74,-0.16,0.52,-1.31,0.16,1.82,1.79,0.08,0.54,-0.32
"ex4611",-1.52,0.17,0.10,-0.09,0.66,-0.06,0.35,2.06,2.34,2.77,3.63,3.87,4.68,2.64,3.87,5.55,1.92,3.27,1.27,0.76,-1.15,-0.92,-0.68,1.35,-1.24,0.35,0.79,0.92,-1.77,0.32,-0.48,0.61,-2.89,-1.59,-1.03
"ex4612",-0.19,-0.12,-0.62,1.59,-1.55,1.46,3.07,1.28,5.00,4.27,6.85,4.38,2.49,2.83,0.71,1.42,0.33,0.08,0.89,1.34,-0.44,1.44,1.62,-0.76,-0.57,1.01,-0.97,-0.31,0.46,0.81,2.21,0.57,-1.63,-0.21,0.62
"ex4613",1.18,1.66,-1.37,-0.72,0.62,0.62,-1.48,0.96,2.09,1.92,4.29,4.03,6.33,5.74,5.48,3.07,3.15,2.00,1.23,0.95,1.42,0.08,0.30,-0.85,-0.99,-0.35,-1.51,-1.90,0.09,0.37,1.02,-1.86,-0.09,1.25,-0.65
"ex4614",1.51,1.82,1.71,1.31,2.64,3.60,2.91,3.01,2.47,1.48,1.03,1.42,1.28,2.48,2.77,1.13,2.36,1.95,1.04,-1.01,0.49,-0.98,-1.16,-1.09,-0.79,0.54,0.65,0.32,-0.25,1.13,1.43,-0.85,1.39,-0.13,-0.62
"ex4615",0.04,2.79,1.94,1.45,0.85,1.60,3.42,4.16,4.89,3.08,3.94,3.69,2.82,0.44,1.28,-1.09,-0.39,0.60,-0.66,1.22,-0.37,-0.50,-1.76,-0.31,-0.68,-0.73,-1.02,2.07,-0.41,-0.76,-0.58,-1.23,-0.11,0.15,0.05
"ex4616",-0.41,-0.18,2.85,2.51,2.53,3.63,4.64,3.72,4.47,0.95,4.15,3.07,2.08,-0.00,0.32,-0.28,-2.54,-1.32,-1.50,0.96,-1.20,-0.61,-2.02,0.59,-0.40,-0.50,-0.65,0.03,-1.10,-0.29,-0.66,1.00,-0.49,0.78,-1.03
"ex4617",0.29,0.01,2.55,-0.65,0.17,3.66,4.48,1.71,5.13,4.29,2.89,4.41,2.16,0.87,0.38,0.39,1.19,-0.33,0.51,-0.82,0.05,0.02,0.12,0.76,-0.83,-0.40,0.56,0.66,-2.05,0.52,-1.35,-0.36,-1.06,-1.01,-0.62
"ex4618",-1.18,-0.98,1.83,2.25,2.29,2.49,4.32,4.62,3.67,4.21,4.57,3.19,3.81,1.80,-0.37,0.10,-1.38,-2.04,0.62,0.75,0.73,1.18,-1.65,-1.08,1.13,0.61,1.39,0.50,1.09,0.75,1.38,-1.27,0.28,-0.02,1.03
"ex4619",0.50,0.16,0.43,1.65,1.44,0.87,0.56,0.91,3.43,4.63,5.63,4.80,3.16,4.85,4.52,3.18,2.82,2.52,-0.01,0.59,-0.38,0.64,-0.28,-0.04,0.87,0.29,-0.10,-1.12,0.46,1.73,-1.09,-0.24,-0.43,0.13,-1.43
"ex4620",-1.59,2.37,1.34,3.69,5.69,5.94,4.85,1.68,2.52,2.68,1.43,2.11,0.22,0.66,2.33,1.56,1.49,1.79,-0.85,-1.42,-1.34,1.40,0.69,0.03,-0.32,0.19,1.38,0.63,0.08,0.54,-0.94,1.02,-0.66,-1.34,-2.44
"ex4621",-1.82,1.66,3.18,4.67,3.45,1.93,5.15,5.47,2.71,2.87,2.33,1.09,1.01,0.27,-0.33,0.30,0.11,-0.25,0.03,2.16,0.06,0.23,1.23,0.70,0.40,-0.97,-1.77,-1.42,0.96,0.85,0.18,-0.14,-0.44,0.70,0.35
"ex4622",-1.08,-0.33,-0.40,0.29,0.13,4.12,2.98,4.14,5.40,4.14,4.87,4.90,3.56,2.16,1.97,0.88,-0.53,1.41,-0.43,0.48,0.50,2.12,0.57,-0.49,0.49,-0.44,-0.49,0.08,1.65,-0.09,0.02,0.58,0.34,1.40,-0.44
"ex4623",0.12,0.51,0.48,0.61,1.32,-0.61,3.79,2.37,3.86,4.88,3.60,3.76,4.13,5.38,3.75,2.24,0.40,3.61,-0.89,-1.31,-0.53,-2.57,-0.42,-0.32,-1.78,0.52,1.25,-2.04,-0.57,-0.43,0.43,0.40,0.91,-0.53,0.33
"ex4624",-0.19,-0.89,2.39,2.88,3.00,1.08,4.65,3.47,3.73,-1.72,1.83,3.31,0.78,2.74,-0.10,0.65,0.80,1.29,-0.72,1.70,-0.78,0.56,-0.25,0.59,0.76,0.68,1.36,0.41,0.36,-0.49,-0.05,0.05,1.67,0.07,-0.14
"ex4625",0.38,-0.53,-0.81,-0.03,-0.55,0.41,1.00,-0.95,0.23,2.16,2.86,3.09,3.83,5.99,5.24,4.75,1.57,2.03,1.68,-0.29,-0.21,0.43,1.03,-2.07,0.88,1.09,-1.02,-0.63,-2.40,-0.49,0.64,0.14,0.65,0.19,0.25
"ex4626",1.30,3.10,2.76,1.35,2.47,1.36,1.31,2.84,2.91,1.01,3.20,2.88,3.26,2.75,2.66,4.01,-0.28,1.55,1.26,0.98,-0.76,-0.96,-1.69,-1.99,0.27,-0.76,-1.14,0.67,0.60,1.08,0.28,0.18,-1.23,-1.90,0.77
"ex4627",-1.10,-1.81,0.90,0.61,0.21,1.36,0.77,0.57,0.02,0.79,1.93,3.48,1.54,2.90,3.79,3.66,2.54,1.81,1.87,0.25,1.97,-0.36,-0.65,0.41,-0.60,0.34,-0.02,-0.34,-2.75,0.15,2.36,-0.31,-0.94,-0.62,0.96
"ex4628",-0.27,-0.38,1.31,2.32,3.23,6.20,6.37,3.74,4.67,3.96,1.83,0.15,0.16,-0.29,0.61,0.02,-0.28,-0.14,-1.76,0.67,-1.61,-0.82,0.11,1.74,-1.83,-1.01,1.11,1.13,0.89,-0.09,-0.65,-1.22,0.18,-0.00,-0.14
"ex4629",-1.59,0.08,4.13,4.83,2.58,4.72,5.48,5.54,2.19,3.92,2.50,0.78,0.62,-0.34,-1.16,0.69,-0.39,0.29,-0.04,1.11,-0.57,-0.37,2.03,1.32,-1.63,0.48,-2.18,0.01,-0.89,-0.51,-0.27,-0.14,-0.86,0.49,-0.76
"ex4630",-0.24,2.05,0.38,4.06,3.41,4.44,7.32,5.29,3.31,2.31,2.72,0.51,-0.89,0.16,0.46,0.56,0.86,0.18,-0.72,-0.08,0.56,1.06,-0.53,-1.20,0.42,-0.42,-0.25,1.32,1.03,0.21,-0.04,0.37,-0.67,-0.43,-1.25
"ex4631",0.24,-0.28,-1.82,-0.40,-0.64,-1.92,0.10,1.43,1.52,3.70,4.42,4.86,5.23,4.15,3.70,3.70,2.37,2.69,-0.15,0.81,0.71,0.76,1.18,-0.21,1.67,0.74,-1.14,1.07,-0.65,0.19,0.19,0.11,0.72,-0.99,-0.94
"ex4632",-2.39,1.46,1.15,1.27,3.10,3.40,4.07,0.43,2.40,2.49,1.38,1.16,3.58,1.00,1.53,2.77,1.64,1.04,1.62,1.31,0.66,0.47,-1.17,-0.54,0.61,-0.45,-0.70,1.43,-2.48,-1.00,1.52,-0.40,-0.31,0.34,1.01
"ex4633",1.60,1.66,0.09,2.29,2.22,2.27,4.97,2.38,3.59,3.02,2.04,2.85,1.92,1.15,0.61,0.98,-1.44,-0.26,0.51,-0.55,0.81,2.19,-0.94,-0.72,1.08,-1.30,-0.21,1.89,0.22,0.17,0.45,-0.47,0.25,-0.25,-0.18
"ex4634",0.61,1.21,0.22,2.18,1.54,1.99,4.68,4.05,5.84,4.31,3.64,1.69,0.87,1.47,0.95,-1.55,-0.25,0.62,-0.74,1.27,-1.25,-0.91,-1.38,1.25,2.10,0.92,-2.11,0.12,0.16,2.22,0.59,-0.26,-0.33,0.19,-1.58
"ex4635",-0.95,1.97,0.97,3.62,2.59,4.75,6.74,4.82,4.10,4.20,3.10,1.87,1.05,-0.08,1.33,0.02,-1.00,-0.17,-0.70,-2.04,0.31,1.63,-0.60,-0.85,0.25,0.51,0.06,-1.06,-1.43,-1.89,-0.74,0.28,-1.69,1.23,2.42
"ex4636",-0.24,0.10,1.10,4.29,3.58,3.49,4.71,4.35,3.95,1.94,2.68,2.28,0.24,0.04,2.17,1.15,0.43,2.40,2.86,-0.16,-1.82,-1.10,-0.22,-0.60,0.11,-1.91,-0.40,-0.41,0.73,-1.28,-0.57,-0.24,0.59,0.76,-0.49
"ex4637",-1.28,-1.50,0.54,-0.27,-0.63,1.30,1.71,4.06,2.86,5.99,4.23,4.06,2.58,2.20,0.20,0.17,-0.82,-0.29,-0.04,0.11,-0.82,0.29,0.46,-0.56,0.88,0.82,-2.46,0.84,-1.78,0.31,-1.59,1.09,1.73,-0.69,1.92
"ex4638",-1.52,0.99,-1.15,0.50,-1.26,0.40,2.29,0.53,0.75,3.48,5.11,5.06,4.39,4.41,3.79,2.38,2.54,1.54,-0.01,1.04,1.54,-2.76,-0.38,-1.09,0.81,-1.71,0.54,-0.94,0.57,-1.10,-0.60,0.68,1.10,0.52,-0.73
"ex4639",-0.88,0.86,0.27,-0.12,1.59,-0.02,0.69,1.35,0.58,1.22,2.58,2.26,3.59,4.89,4.85,4.87,3.88,2.25,2.54,1.38,-1.19,-0.56,1.01,-1.98,0.97,-0.83,-0.71,1.06,-1.45,-0.53,-1.23,-0.03,0.18,0.24,-0.07
"ex4640",0.88,1.23,1.19,1.56,4.72,4.24,6.53,2.24,2.61,3.63,2.15,1.28,0.78,-0.60,0.46,-1.48,1.17,0.79,-0.71,0.29,-0.65,-0.58,-1.72,1.31,-0.71,-0.73,-0.46,0.28,-0.73,0.57,-0.20,1.75,-1.61,2.31,-0.34
"ex4641",-0.25,0.99,2.18,2.25,3.35,4.49,4.78,1.37,2.81,2.59,2.32,0.45,-0.28,1.38,1.20,1.47,1.62,0.50,2.33,0.81,-0.28,-2.51,-1.48,0.92,0.18,0.47,-0.62,-1.27,1.61,0.50,-0.33,-0.74,-0.33,1.73,-0.11
"ex4642",0.48,0.70,1.09,1.02,3.39,5.28,7.21,6.28,2.64,2.95,2.45,0.85,-0.20,-1.38,-0.69,-2.23,-0.69,-0.30,-0.36,0.02,-0.40,1.26,-0.26,-1.35,-0.25,0.23,-1.78,-0.63,0.65,0.90,-0.20,-1.29,-0.73,1.18,-1.48
"ex4643",-1.40,0.74,2.20,3.13,1.89,2.35,4.04,2.81,4.12,4.04,3.71,2.65,1.75,1.87,0.98,1.01,-0.02,2.42,-0.67,0.44,-0.23,1.40,-0.38,-0.31,-0.32,-0.50,0.49,0.20,-0.10,-0.08,0.56,0.15,2.08,0.31,0.35
"ex4644",0.13,-0.14,1.01,1.23,2.12,2.52,2.84,1.81,0.76,1.41,1.13,1.66,2.03,4.29,4.78,4.25,4.39,2.40,2.34,1.30,-0.41,0.14,1.98,0.43,0.47,-1.10,-0.94,-0.86,-1.08,-1.03,0.84,-1.12,1.39,0.14,-0.33
"ex4645",0.93,0.42,-0.53,-1.78,1.45,0.12,-1.41,0.14,-0.01,1.74,2.60,2.46,4.15,4.75,6.15,3.78,4.38,2.77,0.66,1.95,0.80,0.40,-0.59,-1.63,1.30,1.17,0.07,1.66,-0.46,0.61,0.79,-1.77,-1.92,0.01,-0.44
"ex4646",1.80,2.13,0.77,-0.98,-0.32,1.69,1.94,1.68,5.76,4.11,4.76,3.77,3.80,3.94,3.18,2.87,0.47,0.86,-0.26,-1.35,-1.63,-1.03,1.07,-0.10,-0.75,-0.62,-0.18,-0.63,0.45,0.09,0.83,-0.51,-1.52,0.04,1.04
"ex4647",-0.36,-1.80,-0.78,1.84,0.67,0.79,1.01,2.43,1.74,2.74,1.27,2.41,5.07,5.80,4.97,3.53,2.57,0.44,-0.20,-1.91,-0.70,0.51,1.25,-0.77,-1.99,-0.67,-1.18,1.17,-1.78,-0.38,1.17,0.49,-2.11,0.10,-0.37
"ex4648",-1.68,-1.20,1.97,1.36,3.25,4.34,2.62,1.30,1.24,2.70,-0.37,1.54,0.95,0.77,3.72,4.26,1.72,1.79,-0.63,1.80,0.89,-1.22,0.06,0.02,0.94,-1.01,0.62,0.06,0.91,-0.62,-0.75,0.04,1.64,1.90,0.06
"ex4649",-0.18,0.70,0.99,3.27,0.31,0.86,3.13,2.69,2.09,2.09,2.43,2.39,3.84,2.58,2.85,-0.10,1.07,2.05,1.36,2.00,-0.11,0.72,0.20,0.45,0.41,0.64,1.83,-0.26,0.73,-0.25,0.89,-0.31,-0.79,-1.56,1.19
"ex4650",-0.35,0.35,-0.79,1.85,1.96,4.17,3.69,3.03,2.15,4.14,3.11,3.68,1.51,-0.16,1.35,1.57,4.83,0.26,2.11,2.22,-0.31,0.79,0.58,-0.16,0.73,-1.28,-1.09,0.21,-1.09,0.03,-0.32,0.52,-1.73,-0.81,0.54
"ex4651",0.36,-1.42,-0.53,0.31,-0.31,1.10,1.30,1.70,3.19,3.16,5.83,5.23,4.78,3.88,3.52,2.98,-1.41,0.02,0.01,0.64,1.79,-0.90,1.38,1.92,0.49,-0.05,0.33,-0.56,-0.81,-0.06,0.83,-0.88,0.03,-1.05,-0.42
"ex4652",0.86,0.88,1.39,3.69,1.80,1.53,3.44,4.20,2.10,1.31,1.17,2.71,0.12,1.52,4.51,4.56,0.72,1.20,-0.97,-0.08,0.79,0.91,-0.42,1.01,0.60,1.43,0.48,2.31,-0.90,0.40,1.03,-0.91,1.17,1.76,1.19
"ex4653",-0.31,1.89,1.51,2.46,4.17,4.42,3.80,4.08,3.96,3.86,1.95,-0.54,-0.51,0.41,0.68,1.32,1.10,1.62,-0.04,-1.85,-1.93,-0.63,0.21,1.00,0.82,0.92,0.24,-0.12,-0.06,-1.28,-0.49,0.85,-0.50,-1.92,-0.67
"ex4654",-0.14,0.13,1.36,-1.02,-0.14,-0.54,1.47,2.72,1.96,2.29,4.89,3.42,3.18,3.62,3.19,1.86,1.56,2.07,0.69,1.53,-0.71,0.07,-0.52,0.44,0.32,-0.44,-0.61,0.26,-0.38,0.50,-0.07,-1.42,1.57,0.81,0.26
"ex4655",0.34,1.23,0.70,-1.18,0.02,0.49,2.74,-0.60,1.57,2.36,1.11,2.29,4.74,3.81,4.73,3.47,2.95,0.88,1.53,1.52,0.02,0.43,-0.83,0.07,-0.35,0.45,-1.01,-0.53,1.81,-1.34,2.37,1.07,-0.29,-0.14,-1.06
"ex4656",-0.17,-0.69,-0.54,0.17,-0.77,-0.52,1.52,0.21,2.12,1.59,4.69,4.60,5.48,3.88,2.23,4.10,2.17,4.00,1.20,1.82,1.94,-0.62,-0.20,0.16,0.06,-0.55,0.12,1.78,0.70,0.27,-1.03,0.41,0.08,-0.10,-0.43
"ex4657",1.43,0.05,0.22,2.22,2.24,1.60,5.01,3.96,4.41,3.24,2.02,0.52,1.76,1.62,1.31,-0.14,-0.15,-0.02,0.45,-1.72,0.64,0.83,-0.68,-0.89,-0.40,1.32,-0.59,-1.29,-0.72,1.48,-0.04,-0.41,0.77,-1.97,-0.23
"ex4658",1.08,1.09,0.55,1.80,1.07,1.60,3.11,3.70,0.88,2.97,2.33,2.38,1.27,2.80,4.15,2.55,2.28,1.91,0.83,-0.11,-1.07,0.94,-0.59,-0.60,-0.03,-0.20,0.75,0.45,-1.15,0.63,0.68,0.57,0.35,-0.49,-0.38
"ex4659",-1.10,0.87,1.11,-0.04,-0.21,1.83,1.79,2.98,3.98,4.50,5.30,3.46,3.49,2.32,3.53,0.81,2.08,0.15,1.59,-1.70,-0.23,-1.02,1.21,-0.68,-1.10,0.57,-0.04,-0.30,1.22,-1.02,-0.42,1.70,0.41,0.42,-0.93
"ex4660",0.33,-0.08,1.80,3.63,2.57,2.02,7.50,6.07,4.10,2.85,2.72,3.08,-0.38,-0.63,0.91,1.47,-1.28,-0.46,-0.30,0.96,0.47,0.75,-1.24,-2.11,-0.10,-0.43,0.51,0.76,0.37,-1.05,1.94,1.65,0.92,0.33,0.29
"ex4661",-0.21,2.37,2.12,3.78,2.86,3.84,5.66,3.33,4.72,2.10,0.54,0.60,-1.20,2.16,-1.18,-0.91,1.59,0.24,1.53,1.54,-0.20,0.61,1.17,0.86,-0.13,2.81,0.58,-0.55,-0.17,0.57,1.14,-0.02,-0.84,1.21,-0.90
"ex4662",-0.38,-0.54,1.37,-1.92,-1.16,1.87,0.66,3.70,4.77,4.49,5.85,5.13,3.36,3.54,1.11,2.88,-0.19,1.92,1.06,0.94,-0.89,1.04,0.42,1.02,-1.08,-1.68,-0.16,-1.19,1.11,-2.06,-0.77,-0.40,-1.35,-1.84,0.30
"ex4663",-1.73,-0.05,-1.58,1.73,0.71,0.55,0.04,-0.44,1.42,3.44,2.55,3.16,5.62,2.72,3.17,4.41,1.21,3.07,1.86,0.72,0.79,-0.35,-0.15,1.84,-0.87,0.59,-0.71,1.92,-0.98,-0.37,-1.62,-0.81,-0.12,-0.69,0.45
"ex4664",-0.88,1.39,0.97,0.16,1.08,2.00,2.19,4.98,3.89,4.58,5.53,5.45,1.36,2.97,0.80,0.13,-0.33,-0.40,-0.98,-1.18,0.84,-0.37,-1.35,-1.87,1.09,-0.42,-0.41,0.62,0.13,-2.21,-0.03,0.08,0.72,0.99,-0.51
"ex4665",-0.54,2.07,1.09,4.28,2.57,3.38,5.26,3.17,4.09,2.59,0.91,1.59,1.23,2.51,2.66,0.23,1.62,-1.48,0.06,0.52,-0.02,-1.08,-1.17,-0.65,-0.41,-0.49,-0.08,1.61,-1.75,2.89,-0.34,-0.81,-0.75,0.45,-0.71
"ex4666",0.71,2.39,1.20,3.24,4.24,6.02,4.94,6.05,4.23,2.37,4.51,1.82,-0.12,0.62,1.32,1.25,0.29,0.19,1.48,1.35,-1.48,-0.02,0.87,-0.16,-0.09,-1.21,1.23,-0.77,0.19,0.37,-0.75,-0.94,-0.36,-0.14,1.29
"ex4667",-0.41,1.33,1.26,2.49,2.43,3.84,5.07,2.10,4.17,2.85,2.82,3.05,0.11,0.18,2.53,-0.30,1.86,0.19,0.29,-1.06,-0.35,0.65,0.47,2.07,0.87,-2.05,1.22,-0.06,0.15,-1.28,0.51,0.90,1.79,1.09,0.59
"ex4668",2.59,-0.08,1.61,3.50,3.83,3.44,5.93,4.24,3.76,-0.04,1.32,-0.07,0.88,1.57,1.39,0.15,1.56,-0.16,-0.10,0.89,0.96,0.72,-0.28,1.25,-1.00,0.87,0.10,-1.25,0.75,0.43,-0.77,-0.42,-0.10,0.49,0.94
"ex4669",-1.30,1.51,0.60,1.88,3.52,3.04,5.72,6.34,4.18,2.82,2.64,0.24,1.42,-0.62,-0.62,0.37,-0.76,-0.24,0.74,1.00,1.82,0.98,1.80,0.22,-0.42,-0.55,1.36,1.72,0.33,-1.72,-0.85,1.51,0.28,0.39,-1.39
"ex4670",-2.05,0.21,1.02,1.25,1.74,2.09,2.08,1.14,-0.52,0.81,2.44,2.11,2.42,7.23,5.04,3.80,2.29,3.27,0.69,-0.46,-1.40,-0.38,-0.20,0.19,-0.18,0.63,0.31,-0.72,1.00,-0.18,-0.09,1.14,0.25,-0.69,0.11
"ex4671",-1.21,0.60,1.99,1.20,1.64,1.26,3.62,3.35,2.07,-0.13,2.24,0.92,0.58,2.38,2.74,3.04,1.64,1.88,1.03,0.75,-0.12,-0.13,0.75,-1.56,-0.37,-1.01,0.68,-0.61,-0.14,0.01,-0.95,-0.14,-0.01,-0.27,-0.64
"ex4672",-1.89,-0.84,0.68,1.41,2.91,4.49,5.30,4.66,4.45,3.78,3.63,2.85,1.74,0.97,0.42,0.53,1.58,-0.32,-1.14,0.56,1.05,-0.08,-0.28,-0.34,1.12,-0.05,-0.86,-1.09,-0.85,-0.59,-1.82,0.78,-1.20,2.27,-0.12
"ex4673",-0.13,1.84,-1.40,-0.09,0.84,0.97,1.17,1.94,2.79,4.34,5.56,5.61,2.93,1.55,3.13,2.68,1.45,0.43,0.17,0.55,-0.11,-0.43,0.65,-0.56,1.09,0.23,-0.54,-0.92,-0.35,0.96,1.58,0.16,-0.83,-0.46,-1.48
"ex4674",-1.00,-2.38,-0.18,-0.87,0.89,0.96,2.41,2.03,2.52,5.43,5.30,1.38,3.88,3.20,2.88,2.08,2.06,0.11,1.63,1.32,-1.28,0.70,0.11,-0.66,-1.29,-0.66,1.59,-0.27,1.07,1.33,1.85,0.23,-1.63,-0.35,0.64
"ex4675",0.09,-0.09,0.44,1.73,1.53,3.38,4.43,1.90,2.33,1.89,2.78,3.09,0.54,1.90,0.22,2.36,2.76,-1.27,-0.04,1.33,1.71,-0.36,-0.77,-0.15,-0.53,1.27,2.20,0.51,0.77,-0.22,0.61,-0.74,-0.13,1.55,-1.56
"ex4676",-0.34,0.38,0.99,0.77,0.65,0.73,0.63,4.00,4.84,4.70,6.07,5.43,4.21,4.06,4.96,2.53,0.45,-0.00,0.78,1.54,0.13,0.38,0.83,0.48,0.27,-0.54,-1.71,-1.82,-0.49,0.67,-1.10,0.64,-2.14,0.74,-0.57
"ex4677",-1.47,0.83,1.65,3.25,4.83,4.76,3.69,4.00,4.32,1.92,2.98,0.90,1.45,1.97,1.21,0.80,0.37,0.38,0.61,0.44,-0.99,1.14,-1.10,-0.43,-0.19,-1.37,0.50,-0.15,-3.10,-1.55,0.05,-0.08,1.60,-0.28,-0.26
"ex4678",-0.53,0.98,0.19,-0.28,-1.60,-0.33,0.39,0.47,1.10,3.95,3.19,1.59,4.42,4.18,3.67,1.53,1.18,1.93,2.91,0.72,0.26,0.68,0.17,1.57,0.35,-0.78,-1.90,1.22,-0.25,-0.42,-1.18,1.54,-1.55,1.53,0.04
"ex4679",1.16,-0.61,-0.98,0.64,-0.57,2.14,0.13,-0.51,1.10,1.42,2.75,2.94,4.37,5.10,5.60,4.16,4.05,3.28,1.94,0.96,-0.31,-1.42,1.15,0.94,-0.86,-0.73,0.23,-1.58,-1.18,-0.30,1.71,0.76,-0.52,0.93,0.63
"ex4680",-0.95,0.40,1.33,1.70,3.60,3.54,2.42,3.16,4.32,3.45,3.42,-0.04,3.13,0.17,1.51,2.19,0.76,-0.41,-0.85,-0.21,-0.86,-0.81,0.45,0.09,-1.44,-0.21,0.46,2.00,-0.86,0.49,-1.40,0.15,0.13,-0.56,-0.56
"ex4681",0.78,0.08,0.48,-0.33,1.30,-1.98,0.60,-0.74,0.24,1.26,2.14,3.47,3.52,5.10,6.22,4.86,3.55,3.30,0.34,1.21,1.19,-0.22,-0.99,-0.96,0.33,1.12,-1.89,0.10,1.24,-1.03,-0.86,-0.03,1.12,0.80,-1.26
"ex4682",0.38,0.79,-0.37,2.19,2.46,3.74,4.07,4.94,2.07,4.47,1.48,1.99,0.49,1.16,1.26,0.50,2.50,1.24,-0.11,0.50,0.43,-1.31,-0.78,0.17,-0.52,-0.23,1.19,1.18,1.04,0.48,0.37,2.57,-1.59,-0.45,0.69
"ex4683",0.00,0.03,-0.05,0.50,3.23,3.55,3.56,3.53,4.67,3.95,3.41,2.44,1.75,1.14,1.73,0.59,0.71,0.83,1.41,0.36,0.87,1.40,1.44,-0.27,0.52,-0.36,-0.22,0.36,0.28,0.50,0.81,-1.00,0.36,0.22,0.70
"ex4684",0.55,1.80,2.83,1.34,0.39,2.65,5.60,3.00,4.09,2.88,4.24,2.20,3.12,0.54,0.13,0.34,-1.15,0.05,2.01,0.52,0.39,0.75,-0.18,-1.31,-1.42,-0.74,0.07,-1.21,0.04,-0.17,0.72,-1.63,-0.83,-2.49,-0.66
"ex4685",-0.01,-0.84,-0.76,0.83,-2.40,-0.66,1.87,1.85,2.52,3.53,5.35,4.90,5.67,4.16,2.88,2.66,3.64,1.05,0.11,0.15,-2.43,0.33,-0.90,0.51,-0.92,-0.65,-1.47,-0.72,2.12,-0.70,0.18,1.48,-1.25,0.43,-1.43
"ex4686",0.06,0.47,0.22,-0.94,0.20,-0.92,1.02,0.23,-0.76,0.67,0.85,3.07,1.23,5.47,5.04,5.13,2.67,4.09,2.56,0.68,1.60,-0.60,0.19,0.07,-0.18,0.88,-0.35,0.00,-0.94,0.38,0.27,-0.50,0.17,-1.23,-0.94
"ex4687",1.09,-0.15,0.68,1.44,2.42,0.98,0.84,3.88,0.54,3.16,0.37,3.10,3.28,1.81,4.55,5.11,1.82,2.63,2.11,1.28,1.52,1.41,1.36,0.81,0.13,0.53,-1.08,0.51,2.95,-0.41,0.03,1.38,-1.08,2.24,-0.18
"ex4688",-0.44,-1.66,1.59,0.62,0.38,-0.60,1.27,0.99,0.09,2.79,1.35,2.77,4.03,4.49,5.81,5.36,6.29,4.71,0.68,2.96,-0.30,0.46,0.87,2.47,0.02,-0.41,1.13,0.14,0.10,-1.87,-0.19,0.01,0.11,0.30,0.95
"ex4689",-0.82,-0.81,-0.89,0.20,1.41,2.64,0.24,1.42,-0.86,0.76,0.98,3.01,2.70,3.38,3.56,2.31,1.42,1.23,1.11,1.24,0.05,1.37,1.38,-0.53,1.08,0.77,-0.18,-0.62,0.89,-0.89,0.27,0.17,1.15,-0.27,-1.72
"ex4690",-0.47,0.07,1.46,2.21,2.88,3.07,3.49,6.02,2.59,1.10,3.31,2.86,3.52,2.90,2.88,2.11,2.65,1.07,1.81,-0.32,0.53,-0.04,-1.57,0.53,-0.07,0.37,-0.99,1.04,1.46,0.35,-0.19,1.30,-0.79,-1.36,-0.42
"ex4691",0.03,0.50,1.48,1.51,3.24,4.72,4.14,3.61,2.53,4.43,1.73,2.13,1.21,1.43,-0.08,2.34,1.60,0.95,1.44,0.26,-1.74,0.97,0.57,-1.17,0.24,1.30,-0.51,-0.15,0.29,-1.76,0.65,-1.56,0.18,-3.40,1.26
"ex4692",-0.03,1.92,3.07,2.60,2.44,5.12,3.84,3.53,3.38,2.03,2.34,3.31,-0.70,1.90,1.75,1.96,2.38,1.88,2.40,1.78,-0.15,2.18,1.29,-0.42,-0.37,0.16,0.93,-0.27,-1.14,-0.66,0.38,0.44,-0.71,-1.94,-0.01
"ex4693",-2.05,-1.87,0.71,-0.14,-1.03,0.57,-0.05,-0.30,0.20,3.42,1.38,2.32,4.99,4.95,5.18,4.33,5.37,2.71,1.91,-0.03,3.67,-0.29,-0.23,0.90,0.16,-0.88,0.15,-0.44,0.03,0.16,0.22,0.38,-0.01,0.14,0.19
"ex4694",0.09,0.41,1.12,-0.93,0.39,0.69,1.70,1.29,-0.66,-0.14,3.05,3.81,4.28,5.74,6.35,4.42,5.05,3.41,3.03,0.49,0.80,0.37,-0.17,-0.20,1.70,-0.43,0.92,-3.33,-0.60,0.77,1.03,-0.64,0.56,-0.61,0.40
"ex4695",-1.29,1.69,-1.07,0.63,-0.52,-0.80,-0.16,-0.25,0.71,3.91,3.23,5.57,3.82,5.26,4.96,4.07,5.47,2.54,1.79,1.07,3.27,-1.10,0.15,1.89,0.72,0.93,-0.56,-1.60,-0.28,-0.75,-0.13,-1.49,0.83,0.93,-1.01
"ex4696",0.60,0.73,0.13,0.98,-0.71,2.79,2.09,0.92,2.29,0.92,1.51,1.57,1.29,2.97,3.92,3.10,1.50,0.25,2.64,0.32,-0.06,-0.07,-1.06,0.52,0.52,1.58,-0.39,0.46,0.61,0.23,-0.35,0.74,-1.63,-0.36,0.22
"ex4697",-1.15,2.00,2.44,2.14,2.48,5.11,6.72,5.44,5.57,3.07,0.71,1.29,0.09,2.76,-0.08,-1.07,1.17,-0.46,0.44,-0.09,0.30,1.16,-1.58,0.18,-0.62,-0.12,0.71,-1.29,0.87,0.42,-1.01,1.21,-0.31,1.70,-1.36
"ex4698",0.72,-1.22,0.57,0.87,0.46,2.39,0.22,1.97,-0.97,2.16,1.77,2.30,3.78,2.91,6.06,2.71,3.56,3.64,0.79,-0.71,0.38,-0.26,0.85,-0.01,0.04,0.07,0.60,2.21,1.73,1.44,2.07,-0.42,1.12,1.29,-0.32
"ex4699",-0.37,-0.05,-0.81,1.11,-0.51,1.04,2.20,1.49,3.49,4.08,3.11,4.38,4.50,1.24,2.76,3.86,-0.13,0.63,0.58,0.98,-0.59,-2.17,-2.34,-0.28,-1.36,0.11,-0.50,0.52,1.04,-1.62,1.55,1.23,0.75,1.13,-1.65
"ex4700",0.46,1.24,-0.72,1.38,2.72,1.39,3.32,3.11,3.40,3.50,5.81,4.44,4.48,3.14,3.75,1.58,1.03,-0.50,-1.20,-1.88,0.62,0.35,-0.48,-1.18,0.57,0.63,-0.66,-0.18,-0.27,-0.67,0.98,-0.01,0.99,1.77,-0.60
"ex4701",0.86,1.01,-0.29,0.59,0.07,2.72,-0.90,-0.43,-0.44,0.81,0.10,3.77,5.11,4.96,5.48,4.02,2.77,3.10,1.74,-0.06,-1.09,1.53,0.26,-0.40,-1.65,0.71,-0.93,-0.80,-2.03,-0.01,-0.54,-0.10,-1.99,0.31,1.00
"ex4702",0.48,-0.26,1.84,2.49,1.75,6.05,5.59,4.64,5.14,0.73,2.76,0.96,-0.25,-0.45,0.19,1.18,1.10,1.68,-0.93,0.50,-0.47,-1.34,0.30,-0.83,1.12,-1.28,-1.25,0.90,-0.45,0.36,-0.63,0.15,0.22,-0.18,0.24
"ex4703",-1.20,0.85,-0.09,0.02,1.45,0.72,1.69,2.45,3.20,3.70,4.53,2.06,1.57,5.16,4.33,3.10,3.04,1.89,1.48,0.46,1.57,-0.29,2.08,1.23,0.47,-0.37,-0.19,-0.01,-1.23,-0.28,1.13,1.59,0.13,0.76,-0.66
"ex4704",-1.45,-0.09,1.52,0.68,2.05,0.38,4.40,4.31,2.99,4.06,4.23,3.57,3.45,2.29,0.76,-0.13,-0.34,0.95,0.28,0.29,-1.75,0.51,0.10,-1.23,0.45,-0.20,-0.88,0.36,0.72,-1.00,0.48,-3.30,0.12,-0.27,0.19
"ex4705",-0.15,-0.12,1.25,0.63,1.74,3.34,3.10,1.00,1.61,1.60,0.53,2.27,1.36,4.78,3.81,3.78,2.75,3.53,1.78,1.96,1.40,0.98,-1.14,-0.29,-1.46,0.05,0.81,-0.59,-1.51,0.84,-0.44,-1.93,-1.88,0.81,1.55
"ex4706",-1.44,0.63,-1.15,-0.83,0.47,-0.18,1.60,0.66,0.87,0.48,1.72,2.91,4.14,5.34,4.61,3.18,1.63,3.86,1.27,0.16,-0.16,0.86,0.46,-0.57,0.98,-1.11,-1.87,-0.09,-0.48,-0.79,-0.04,0.91,1.08,0.07,-0.65
"ex4707",-0.51,1.75,0.55,0.77,3.01,3.97,2.30,2.99,3.74,4.22,4.58,3.43,3.32,2.91,1.81,-0.20,-0.37,-0.39,-0.67,-0.25,0.37,1.15,0.61,-0.08,0.71,0.77,0.13,0.10,1.17,0.96,-0.71,-1.21,-0.61,-0.28,-0.54
"ex4708",0.64,1.76,2.39,4.40,4.52,1.76,5.64,4.27,3.58,1.50,1.15,0.23,1.72,1.56,1.24,-0.30,-0.16,2.51,-0.16,1.13,0.97,0.20,-0.58,0.38,1.55,0.50,0.38,-0.60,-1.47,1.75,1.12,1.39,-0.77,-0.14,-0.37
"ex4709",-0.00,2.01,1.40,-0.70,1.83,4.20,2.85,2.53,6.02,3.97,3.30,5.32,1.57,1.51,3.32,-0.26,-0.55,0.29,0.32,-0.87,1.39,0.16,-1.56,-0.20,0.26,-0.37,-0.17,1.15,-0.13,-2.08,1.48,0.53,-1.34,1.48,-0.44
"ex4710",0.87,1.05,1.66,0.01,0.45,-0.15,2.53,0.86,1.98,1.78,2.47,1.72,1.95,4.82,5.83,3.65,2.55,2.19,2.15,-1.06,-0.76,-0.43,-1.18,1.72,-0.45,1.50,-0.21,1.15,-0.10,0.38,0.74,-0.05,0.77,-1.36,-1.08
"ex4711",1.57,-0.56,2.03,2.28,4.33,4.22,5.07,4.42,1.80,1.28,0.89,0.84,1.30,1.92,2.68,-0.75,0.95,0.49,-1.65,-1.93,0.35,0.96,1.04,0.18,0.35,0.12,-0.15,1.21,-0.09,0.48,-0.29,0.68,-0.92,0.80,0.11
"ex4712",0.23,0.68,-0.65,0.63,1.43,-0.33,1.00,2.44,0.32,0.20,1.92,4.13,2.77,2.55,3.84,4.34,3.41,1.62,2.37,0.17,-1.11,1.56,-0.38,-0.90,1.84,-0.09,1.83,-0.66,-1.07,-2.09,0.50,-0.41,2.69,-1.26,-0.49
"ex4713",0.14,0.15,-0.27,-0.01,-0.21,-0.84,-0.01,1.46,3.69,2.20,4.53,3.70,4.42,4.29,3.98,2.75,1.26,1.40,1.49,0.66,0.46,0.95,-0.95,0.36,2.28,-1.22,0.76,0.12,-0.61,-0.46,-1.22,-1.45,2.22,0.58,0.84
"ex4714",1.01,1.35,1.87,3.24,2.17,2.42,5.05,2.69,3.15,4.21,3.44,1.15,1.22,3.18,0.74,1.64,2.32,-0.56,1.74,-0.70,0.01,-0.89,-0.20,1.29,-0.41,-1.97,-1.93,1.75,1.16,0.43,0.25,-0.33,0.07,-0.78,1.13
"ex4715",-1.08,0.63,-0.89,-1.54,0.17,0.27,-0.18,2.30,0.63,0.09,1.62,3.12,4.27,2.72,5.47,2.86,2.00,3.11,2.52,1.95,0.71,-0.46,-0.55,-1.13,0.56,0.30,0.48,0.18,0.71,2.00,3.48,0.48,0.25,-0.66,-0.81
"ex4716",0.36,-0.36,0.95,3.50,4.60,3.62,4.81,3.38,2.97,3.39,0.81,1.17,0.73,0.83,0.14,-0.10,0.51,0.37,1.00,0.45,0.14,-1.01,1.32,0.35,-0.51,1.13,-0.45,-0.05,-0.26,-0.21,0.82,0.98,-1.27,0.25,2.85
"ex4717",-0.64,-0.52,-0.15,0.75,3.10,-0.02,0.60,1.30,1.10,2.26,1.81,4.27,1.30,3.86,4.36,3.13,1.69,2.01,-0.44,0.74,-0.42,-1.57,0.19,0.52,0.48,1.04,-0.41,0.87,-0.74,0.26,-0.75,-0.84,0.25,-1.58,2.25
"ex4718",-0.69,1.73,1.09,0.24,-1.67,-0.78,0.16,1.08,1.49,3.26,2.11,2.33,5.72,3.84,6.73,4.72,3.64,3.55,1.28,1.45,0.49,0.25,-0.22,-0.62,2.03,-1.04,-0.10,0.26,-0.55,0.55,0.80,0.81,-0.29,-0.67,1.42
"ex4719",-1.24,-0.07,-1.04,-1.22,-0.24,-1.95,0.59,0.27,2.18,1.26,2.66,4.70,4.56,5.50,5.70,4.00,4.32,1.91,-0.41,0.55,-0.11,-1.09,-0.42,0.09,-0.05,-0.98,0.59,0.23,-0.64,-0.11,-1.25,-0.83,1.75,-0.52,-0.39
"ex4720",2.40,0.99,0.39,0.35,0.53,0.63,2.01,1.69,-0.30,3.14,2.92,2.46,6.04,3.25,4.61,3.50,3.66,4.56,1.99,0.81,-0.48,-0.49,-0.15,-0.29,0.26,-0.62,0.70,0.90,1.07,1.74,-0.94,-0.15,1.10,-0.34,0.86
"ex4721",-0.32,-0.52,1.77,1.51,1.74,2.53,3.29,2.57,1.61,2.91,2.55,3.48,1.17,-0.82,2.10,2.54,3.02,2.70,1.12,0.49,0.35,-0.26,0.62,0.61,-0.73,1.07,-0.04,-1.08,0.28,-0.10,2.02,0.28,1.29,-1.56,-0.33
"ex4722",-0.99,-0.35,2.11,1.11,2.17,1.71,3.60,4.26,3.78,4.15,4.01,3.12,2.59,-0.48,-1.01,1.54,-0.37,1.29,0.02,1.04,0.78,0.04,-0.63,0.46,-0.17,-0.61,-0.97,0.40,-2.29,1.56,0.00,0.03,0.58,0.62,0.27
"ex4723",-1.07,-0.63,0.17,-0.69,1.46,-1.30,-1.61,0.10,-0.55,2.75,1.08,4.90,3.82,4.37,6.11,4.41,2.70,1.23,0.77,-1.11,0.68,0.76,0.31,0.38,0.08,0.18,0.98,1.37,-1.60,0.22,-1.42,-1.51,0.78,0.40,1.11
"ex4724",1.02,1.10,1.80,-0.79,3.01,4.77,3.51,4.56,3.46,3.23,4.18,1.55,1.33,1.15,1.05,1.45,1.72,0.80,0.93,0.10,-0.80,-0.76,0.84,-0.55,0.24,-0.77,-1.16,-1.30,-1.13,-0.99,-1.00,0.38,0.52,-1.51,1.87
"ex4725",0.65,1.10,-0.57,-1.21,0.69,-1.07,0.91,1.01,1.23,2.09,3.97,3.55,5.44,4.56,7.06,2.66,2.52,0.84,0.86,-1.54,1.28,0.54,-0.14,-0.46,-0.61,0.34,-0.22,3.26,-0.53,-0.76,-0.22,-0.53,1.73,-1.52,-0.61
"ex4726",0.99,-0.22,1.25,1.15,1.65,0.62,0.27,2.20,1.61,0.73,2.76,3.52,1.73,4.17,5.30,4.65,3.93,2.36,1.44,0.87,-0.27,0.28,-0.03,-0.77,2.13,0.17,-0.17,1.49,1.60,-0.71,-0.71,0.73,2.70,-0.18,-1.38
"ex4727",0.36,-0.68,-0.53,-0.97,1.56,-0.13,0.26,0.46,-0.75,1.63,3.58,1.94,2.32,6.01,3.98,2.69,2.12,1.92,1.85,0.05,-0.60,-0.09,-1.21,0.85,0.12,-0.12,-1.01,-0.06,0.91,0.14,0.34,0.01,0.46,-0.63,0.00
"ex4728",-0.01,0.92,0.78,1.97,2.42,2.83,5.27,3.64,3.81,1.47,-0.46,1.41,-1.65,0.21,3.36,0.79,0.52,1.24,1.34,1.82,0.38,-0.23,-0.98,0.45,-1.20,0.06,-1.09,-1.13,-0.22,-0.62,-0.18,-0.15,-1.18,0.17,0.18
"ex4729",-0.51,-1.23,-1.15,-0.86,0.12,-0.42,0.85,0.25,0.06,3.35,2.91,3.61,5.66,4.31,4.04,3.43,4.08,3.06,2.40,0.45,-1.67,0.18,1.08,0.12,0.06,1.23,-0.92,0.85,0.73,1.52,1.38,0.59,1.48,0.33,1.04
"ex4730",0.30,0.12,0.68,0.06,0.82,-0.83,-0.60,-0.72,-0.65,1.17,2.50,3.91,3.92,5.65,5.68,4.55,4.69,1.82,0.89,1.67,0.56,-0.62,1.53,-0.13,-2.22,-0.15,-0.26,-0.76,0.23,-0.84,1.07,-0.63,0.75,-0.46,-0.38
"ex4731",-1.34,0.98,1.89,1.36,2.71,4.10,3.77,4.59,1.71,1.41,1.36,1.42,2.49,-0.16,-0.28,0.64,1.68,-0.82,-0.18,-0.21,-0.70,-1.06,-1.11,0.82,-0.50,0.35,0.39,-0.91,0.93,-0.63,0.96,-0.80,-0.39,-0.55,1.01
"ex4732",-0.45,0.78,-0.07,0.53,0.67,1.29,1.13,2.01,0.81,2.77,2.07,1.52,4.06,3.06,5.27,3.68,2.67,2.37,0.83,0.86,0.28,-1.15,-1.52,-0.46,-1.37,-0.90,-0.36,0.47,0.02,-0.74,-2.81,-0.67,0.61,1.89,0.08
"ex4733",-1.29,1.54,0.80,1.25,2.25,3.61,5.53,5.38,3.76,3.78,0.93,1.53,0.06,2.92,2.38,2.01,-0.17,1.08,0.65,1.73,0.25,-0.55,-0.09,1.52,0.92,0.19,0.44,1.57,-1.35,-0.37,-0.76,0.92,-1.48,0.06,-1.15
"ex4734",1.50,-0.78,0.46,0.25,1.93,0.55,1.54,-0.02,1.15,1.37,0.82,2.23,2.71,4.17,5.81,5.67,4.27,3.88,2.19,1.22,0.08,0.24,0.91,-0.26,2.47,0.02,-1.80,-0.57,-1.68,-1.05,0.11,-0.92,0.53,0.31,-0.64
"ex4735",-1.46,1.67,0.02,3.31,1.08,5.48,2.88,2.41,3.51,7.12,5.40,3.14,1.73,1.86,0.28,1.47,-1.04,1.26,-0.58,0.74,-0.09,-0.06,-0.40,1.24,0.47,-0.94,-1.10,1.32,1.56,-0.43,-1.42,-0.35,0.26,-1.19,-0.45
"ex4736",0.91,1.42,2.52,3.33,3.15,5.63,4.51,5.22,3.12,2.80,1.95,0.69,1.37,1.70,-0.97,0.19,-1.47,0.53,0.45,0.64,0.50,-0.43,-0.32,-0.00,0.07,-0.18,-0.90,-0.00,0.86,0.61,-0.68,2.39,-0.74,0.21,0.31
"ex4737",-0.67,-0.84,1.54,2.28,1.73,2.61,5.48,4.79,3.87,1.77,2.47,1.42,2.19,1.26,0.02,-1.12,0.28,0.79,1.65,-1.53,0.40,1.23,-1.31,-0.02,-1.42,1.00,0.31,0.75,1.46,1.90,-0.23,2.41,0.60,0.66,1.58
"ex4738",-0.50,1.56,-0.59,0.88,1.66,0.35,5.47,5.09,3.17,4.82,2.33,2.45,0.24,1.54,0.03,1.39,-0.01,-0.10,-0.00,2.13,-0.74,-0.21,0.45,0.13,-0.03,0.26,-0.94,1.02,2.52,-1.22,0.99,-1.02,0.08,0.66,-0.01
"ex4739",-0.64,-2.94,-0.07,-0.88,0.24,0.69,1.11,2.87,1.59,2.24,3.82,3.47,2.41,2.30,3.28,3.14,2.44,0.93,0.23,1.17,-0.39,0.99,0.68,0.98,0.35,-0.45,-0.63,-0.02,0.33,-1.26,-1.18,0.22,-0.43,-0.39,-0.78
"ex4740",0.12,-0.69,-0.35,0.07,-1.04,1.62,1.55,-0.00,1.68,2.88,4.00,4.59,4.92,5.18,3.08,4.38,2.91,2.66,0.86,1.41,-1.52,0.57,-0.50,1.52,0.14,0.53,1.08,-0.56,-0.56,-1.00,1.14,-1.76,-0.23,1.59,-0.12
"ex4741",2.16,-0.44,1.17,-1.60,-0.73,-0.20,0.21,0.37,0.46,0.48,1.40,3.27,4.49,4.21,4.97,3.23,4.08,3.03,1.16,-0.54,1.48,-1.26,1.46,0.49,-0.51,-1.51,0.30,0.32,0.10,1.99,1.23,-1.24,-0.42,0.00,-2.61
"ex4742",-0.34,-0.30,0.98,0.31,0.66,-0.35,1.72,1.81,3.27,1.15,2.24,1.04,2.96,3.89,5.39,5.59,2.38,1.15,0.81,1.47,0.78,-0.60,-0.27,1.18,-0.98,0.79,-0.07,0.24,0.57,1.03,0.31,-0.53,-1.29,-0.41,0.24
"ex4743",-0.18,0.93,-0.18,-0.78,-1.01,-0.05,0.88,0.30,-0.74,1.21,1.21,3.55,3.07,5.75,4.56,4.13,4.36,2.89,3.69,1.41,1.26,-0.44,0.53,0.96,-0.75,0.20,0.11,0.66,1.57,0.35,-1.67,2.29,0.06,0.85,0.37
"ex4744",-0.92,-0.23,1.22,2.61,4.19,3.95,4.69,4.72,4.51,4.02,3.30,2.42,2.00,1.98,1.93,0.60,0.99,1.06,-0.62,-0.50,0.01,0.47,-0.17,0.95,-0.32,0.45,-0.07,0.60,0.08,0.34,1.48,-0.71,-1.01,0.84,-0.07
"ex4745",0.29,-0.82,1.43,2.97,2.64,3.44,5.00,3.75,2.78,2.90,3.16,-0.72,1.92,4.40,3.76,0.30,1.98,1.31,0.73,-0.38,0.56,-0.27,-0.04,-0.10,0.28,0.99,-1.39,0.81,0.77,-0.55,-0.16,0.01,-0.15,-0.75,1.03
"ex4746",0.93,0.10,0.96,-0.36,-0.41,0.70,-0.62,-0.66,1.51,1.47,3.15,2.03,4.36,3.87,5.53,3.74,3.40,2.24,1.29,2.10,0.72,-0.16,-0.82,0.90,0.73,-0.45,-0.14,-0.85,-1.35,0.96,-1.20,-0.85,-0.42,-0.64,1.47
"ex4747",-0.16,1.04,0.49,2.71,4.21,5.98,5.85,4.16,4.40,2.84,3.16,0.43,1.59,-0.02,-1.06,1.82,1.22,-0.16,1.05,0.65,0.52,0.74,1.24,0.13,0.27,0.36,-0.47,-0.12,0.07,0.55,-0.53,-1.06,-0.64,0.05,0.17
"ex4748",-0.06,0.44,-0.23,-0.05,0.98,2.95,2.62,1.69,3.31,5.72,6.17,4.79,5.28,4.73,1.99,0.35,0.50,-1.11,-0.03,0.21,-0.30,-0.40,0.37,1.02,-0.56,-0.77,1.70,-0.09,0.56,2.17,0.90,1.34,-0.12,-1.18,2.24
"ex4749",0.13,-0.36,0.17,1.66,1.92,3.11,5.02,2.01,1.26,3.32,1.39,0.92,1.93,4.33,3.08,3.17,1.12,1.24,1.17,1.21,1.26,1.48,0.33,-0.76,-0.88,2.05,-0.59,0.10,-1.36,0.14,-1.05,2.36,0.43,0.17,1.08
"ex4750",-0.03,1.31,1.49,2.92,0.06,2.71,3.59,2.16,3.22,4.45,3.08,3.39,4.49,3.71,2.62,0.60,0.59,2.06,-1.46,-0.77,-0.42,1.16,0.50,-0.65,-1.05,0.58,-0.15,-0.57,0.20,-0.67,1.22,1.26,-0.61,0.22,0.59
"ex4751",-0.69,0.36,-0.45,0.12,0.55,1.21,-1.43,2.21,1.71,2.47,3.42,2.94,1.78,5.36,4.09,4.29,1.70,1.14,0.12,-0.56,1.61,0.51,-0.37,-1.09,-2.01,-0.18,0.76,-0.36,0.33,0.90,0.38,-1.32,0.58,0.72,0.80
"ex4752",-0.55,2.83,0.55,2.03,1.53,3.66,4.86,4.13,3.79,3.01,3.43,2.70,1.04,0.03,1.07,-0.82,0.71,-0.18,-0.80,1.76,0.39,0.13,-0.86,-1.18,0.48,-0.12,-1.40,-1.21,0.23,0.73,-0.61,0.96,-0.33,-1.34,-1.09
"ex4753",-0.52,0.97,-1.61,1.56,1.90,3.80,4.13,4.08,2.73,3.70,4.35,-0.46,3.34,1.49,1.82,0.18,0.78,-2.05,-0.78,1.22,1.80,0.29,0.18,1.05,-0.42,0.04,-0.48,-1.29,0.01,-1.15,-0.05,1.01,0.63,-0.27,-0.62
"ex4754",-0.65,0.62,1.04,0.92,-0.26,1.61,0.65,2.22,-0.11,1.32,2.13,2.55,3.74,5.81,4.29,3.52,2.56,2.85,1.46,0.99,-0.65,-0.53,0.73,0.20,-0.69,0.46,0.42,-0.11,-0.67,-2.01,1.06,1.38,-1.91,0.31,-1.78
"ex4755",1.27,0.72,1.28,1.21,2.65,2.44,4.09,2.43,4.11,4.35,4.49,3.25,1.67,2.34,0.35,-0.40,1.74,0.43,-1.56,-1.49,-0.21,-0.37,-0.06,-0.82,0.89,-1.34,1.64,-0.89,-1.38,-0.93,-0.77,-0.39,-0.98,-2.47,1.77
"ex4756",0.19,1.38,0.64,1.85,2.80,2.52,4.99,4.29,4.24,2.87,3.96,1.38,0.21,1.96,1.55,1.15,0.26,0.62,-0.16,0.70,1.13,1.07,0.45,-0.66,-1.59,0.47,-0.08,-0.63,0.08,-0.69,-0.31,-0.65,-1.40,-1.16,1.32
"ex4757",-0.10,0.87,-1.48,-0.72,1.30,1.51,-0.24,0.87,4.13,4.33,4.77,4.01,3.14,3.62,4.67,3.30,1.07,1.79,-0.79,1.30,2.51,-1.56,1.10,0.50,-0.15,0.53,-1.01,0.45,0.42,-1.46,-0.76,0.86,-0.10,0.81,-1.06
"ex4758",-1.13,0.81,0.82,2.77,1.05,0.75,3.87,3.42,4.67,4.25,5.35,3.38,2.79,1.31,1.80,-0.37,0.34,-0.13,-0.52,0.52,1.16,-1.16,0.52,0.29,-1.29,-1.12,-1.05,-0.57,0.70,0.74,-0.61,-0.69,0.91,1.14,0.78
"ex4759",0.11,0.29,-2.37,-0.03,3.19,1.82,1.73,1.35,-0.04,-0.77,3.90,2.70,2.31,2.90,4.61,2.72,3.18,2.55,2.07,1.51,-0.03,0.61,2.03,0.97,-0.22,2.05,0.57,0.29,-0.47,0.59,-0.03,1.20,1.77,1.61,0.20
"ex4760",-0.33,1.43,0.21,3.13,2.88,3.55,4.93,2.99,3.30,3.58,3.79,1.97,1.92,0.87,0.50,0.34,1.13,-0.70,-2.17,-0.67,-0.88,0.11,-2.05,-0.44,2.16,-0.11,0.21,-0.09,-0.05,-0.22,0.16,1.36,1.00,1.00,-1.14
"ex4761",0.57,3.17,0.09,2.16,0.83,1.82,1.83,3.95,4.68,4.80,5.46,4.04,2.40,1.76,2.65,1.27,-0.88,0.20,-0.10,0.28,0.41,0.24,-0.25,0.15,2.05,-2.68,0.23,-0.17,0.81,-0.87,0.06,-1.33,0.70,-1.53,-0.24
"ex4762",-0.85,1.38,-1.12,1.41,2.31,3.61,4.69,5.11,4.66,3.78,0.30,3.25,-0.38,1.02,1.07,-0.84,0.62,0.84,0.10,-0.21,-1.08,-0.04,-1.34,0.44,0.97,-0.75,0.77,-0.51,-0.38,1.03,0.62,-0.43,1.64,-1.40,0.55
"ex4763",-0.20,-0.37,-0.06,1.01,2.24,1.04,2.59,3.28,4.34,4.62,4.86,4.37,4.69,1.06,0.43,3.04,-2.48,0.82,0.78,-0.52,-1.16,0.01,1.46,0.18,-0.40,0.46,0.83,-0.51,-0.37,-1.25,-0.67,-1.02,0.17,-0.01,2.12
"ex4764",0.90,-1.74,1.11,2.05,2.03,2.02,1.43,2.74,3.13,2.61,0.49,2.87,2.81,5.37,5.88,4.12,1.87,1.47,1.51,1.09,-0.39,0.27,0.02,1.17,-1.06,0.07,0.61,-0.70,2.36,2.04,0.25,2.13,-2.39,-1.34,-0.07
"ex4765",1.07,1.91,0.91,2.54,1.28,3.89,2.23,1.62,0.85,2.24,3.41,3.53,2.97,3.87,5.36,2.71,3.33,2.11,2.10,0.62,-0.77,-0.60,-0.18,0.64,0.07,-1.22,-0.61,0.05,0.54,3.00,1.07,-0.29,0.32,0.63,0.86
"ex4766",0.36,-1.18,2.39,1.27,3.03,5.34,3.61,5.59,3.62,2.40,2.54,1.30,-0.74,-0.85,1.23,0.13,-0.57,-0.83,0.60,-0.14,0.22,-0.71,1.25,0.07,0.45,-0.43,-0.56,-2.00,1.15,-0.47,-0.90,-1.21,0.94,-0.85,-0.22
"ex4767",1.07,-0.32,-0.96,0.50,1.70,3.41,2.98,2.18,4.80,3.35,5.68,3.35,2.51,2.00,1.72,1.10,-1.88,0.36,-1.28,0.84,1.22,-1.33,0.63,-0.15,-0.72,2.14,0.69,1.15,0.90,0.53,0.44,-1.47,0.09,0.81,-0.39
"ex4768",-1.08,0.51,-0.69,-1.07,0.52,0.59,-1.17,-0.07,-0.44,0.39,2.29,1.81,3.53,4.33,5.67,3.38,4.69,3.81,2.89,0.46,0.47,0.71,0.72,1.39,-0.51,1.18,-1.59,-1.39,-0.84,-0.34,0.25,-1.13,-1.86,1.50,-0.10
"ex4769",0.71,0.14,0.12,0.27,-0.83,0.30,-1.17,-1.16,1.39,1.86,0.24,2.77,2.84,4.71,6.90,4.28,4.38,2.06,0.21,0.82,0.11,1.12,0.06,2.04,0.68,1.48,0.45,-1.77,0.93,0.59,-1.64,0.97,-0.98,0.14,1.70
"ex4770",0.63,0.79,-0.97,0.67,1.25,0.34,2.60,2.87,4.24,3.39,5.58,2.78,3.71,2.52,2.04,0.61,-0.40,0.14,-0.21,0.09,-0.38,1.81,-0.24,-0.18,1.50,-1.74,-0.69,1.37,0.72,1.90,1.36,1.91,1.58,-0.26,-0.42
"ex4771",-0.57,1.60,-0.07,0.57,4.20,3.95,4.41,3.62,4.83,4.70,2.89,3.69,-0.38,1.64,2.74,0.59,-1.49,0.02,-0.99,-0.45,1.57,0.32,-0.99,1.44,0.83,1.35,2.89,1.43,1.31,0.25,-0.69,-2.03,0.01,-0.90,0.54
"ex4772",0.43,0.26,1.63,3.65,3.22,4.44,6.29,5.00,2.76,1.88,2.82,-0.27,0.34,0.89,1.35,0.59,-0.73,-0.21,1.81,-0.61,-1.18,-0.15,0.69,1.42,-0.44,0.54,0.15,-0.13,1.00,0.59,-1.96,-0.05,-0.12,0.39,-0.13
"ex4773",-0.25,2.20,1.56,0.99,0.61,2.11,2.90,0.46,2.71,2.17,1.61,2.73,1.56,1.33,1.15,1.46,0.58,1.50,0.07,0.54,-1.44,1.11,0.29,0.02,-0.22,0.22,-1.12,-1.50,-1.04,-0.50,-0.60,-1.53,0.16,-0.06,-0.53
"ex4774",1.07,0.28,0.45,0.47,0.25,-0.69,0.92,1.66,-0.08,0.54,3.38,2.00,5.91,5.15,5.46,4.43,3.33,2.38,2.09,0.08,-1.00,1.66,-0.63,-1.35,-1.97,-1.03,-1.51,-0.19,-1.62,-0.50,0.12,0.75,1.23,-1.46,0.70
"ex4775",-0.78,1.22,-0.00,0.44,-0.69,-0.10,-0.38,0.57,1.17,-0.55,1.90,3.59,4.45,5.66,7.87,4.55,4.55,1.21,1.55,2.33,-1.89,1.66,-0.52,2.07,0.98,0.52,0.77,-2.45,-0.17,0.28,0.88,1.08,-0.78,-0.69,1.40
"ex4776",0.88,0.34,1.10,2.59,3.34,4.11,5.34,3.54,3.49,5.33,4.84,1.43,1.74,0.87,1.77,0.44,0.07,-1.28,-0.65,0.56,-0.89,0.84,0.79,1.01,-0.93,-0.20,-1.44,0.74,-0.69,1.33,0.46,0.33,1.33,0.66,0.37
"ex4777",1.00,-0.18,-1.59,0.83,-0.94,-1.96,1.95,1.66,2.37,3.89,3.07,2.30,3.36,2.39,4.16,3.16,1.48,0.51,0.14,1.82,1.11,-0.06,1.97,-2.35,-0.34,-0.18,0.92,0.39,-0.56,-0.17,-1.72,-1.01,-1.23,0.48,-1.15
"ex4778",-0.08,-0.31,0.40,0.21,0.96,1.30,0.95,2.71,0.98,1.63,1.28,1.97,3.06,4.63,6.06,1.74,0.37,1.49,2.03,-0.02,-0.45,-0.79,-0.13,0.49,-0.13,0.49,-2.31,1.84,-0.35,0.13,-1.50,1.04,-0.38,0.95,0.86
"ex4779",-0.62,-0.04,2.44,-0.15,2.89,3.59,4.64,2.17,3.32,0.99,4.41,2.65,2.17,1.20,0.10,0.30,0.84,-1.16,1.27,0.18,-0.01,0.35,0.25,-1.84,-0.65,0.83,-0.87,0.41,0.82,-0.65,0.14,1.34,0.01,0.71,0.54
"ex4780",-1.35,1.06,-1.00,0.01,-0.00,1.66,1.51,1.26,2.30,2.51,3.32,3.32,2.39,4.42,4.15,3.13,4.58,1.31,1.93,1.39,2.73,0.56,0.04,-1.31,1.24,0.40,-0.56,-0.15,-0.44,0.02,0.54,0.37,-1.13,1.51,-1.29
"ex4781",-0.69,0.70,-0.17,2.08,1.76,2.54,2.43,3.40,3.53,1.84,1.16,2.30,3.47,3.27,3.58,3.46,3.18,1.45,1.61,0.43,0.14,0.30,-0.77,0.38,0.17,-2.14,0.70,0.87,-0.17,-0.05,-0.80,0.45,-0.92,0.20,0.18
"ex4782",-1.15,1.37,1.13,2.76,3.67,3.34,4.84,1.80,2.92,2.14,1.64,1.03,1.67,0.53,-1.59,0.53,-0.05,0.89,1.04,-0.56,0.74,-0.04,-0.57,1.16,0.87,1.27,-0.91,1.41,1.37,0.38,0.79,-3.25,-1.28,-0.00,-0.13
"ex4783",-1.04,-0.49,2.48,0.69,1.70,0.39,1.18,2.00,0.83,2.91,3.84,0.99,2.58,3.78,4.03,3.44,1.00,3.08,2.57,0.12,-0.59,1.83,1.01,1.96,-1.60,1.17,-0.92,-0.32,2.04,0.81,-2.28,1.80,-0.55,0.66,0.30
"ex4784",-1.27,1.62,1.59,0.40,0.99,3.11,2.08,1.90,1.48,1.56,3.24,2.58,0.80,3.02,4.28,2.16,2.86,2.02,1.02,0.82,-0.63,0.72,1.58,0.16,0.32,-0.63,0.58,0.94,0.29,0.94,0.24,-1.56,1.55,-1.00,0.52
"ex4785",1.09,-0.53,1.60,0.04,0.59,2.47,2.45,1.67,1.54,1.28,2.36,1.70,5.07,2.62,3.51,3.22,2.78,3.02,-0.50,-0.43,-0.32,1.62,-0.50,-1.69,-1.65,-1.12,0.85,0.04,-0.33,0.14,2.10,0.36,-0.68,0.75,0.29
"ex4786",-0.04,-0.70,-0.11,-0.04,1.52,0.22,2.29,0.85,-1.20,0.75,2.44,2.98,2.90,5.00,6.48,5.33,2.41,3.67,1.31,1.34,3.51,-0.82,-0.13,0.77,0.80,-0.71,0.07,0.35,0.05,-0.66,-0.34,-0.02,-2.24,-1.14,0.01
"ex4787",0.40,-1.58,-1.39,2.04,0.40,-0.24,3.58,2.99,4.41,4.15,4.31,6.54,3.52,1.93,2.84,1.58,-0.23,0.01,-0.80,1.89,1.33,1.61,-0.99,-0.96,-0.47,0.99,0.05,0.32,0.20,-0.93,-1.68,-0.58,0.24,-0.19,-1.57
"ex4788",0.13,0.57,1.19,-0.28,0.48,0.44,2.23,0.77,2.52,1.75,4.91,2.58,2.76,4.88,3.56,2.30,0.23,1.52,-1.02,-0.50,-0.55,-0.63,-0.24,0.27,0.29,-0.47,0.64,-0.62,-0.83,1.18,-0.92,1.15,-0.65,0.18,-0.89
"ex4789",-1.71,-0.67,2.32,-0.70,0.18,0.82,3.04,4.33,4.93,5.93,4.52,5.22,3.81,2.16,1.99,0.14,-1.51,-0.23,0.26,1.21,-1.00,0.93,0.10,-0.51,1.69,0.75,0.41,0.61,-0.03,-0.04,1.28,0.13,1.17,-1.24,-1.45
"ex4790",-0.57,-1.30,-1.50,-0.38,-0.33,-0.21,0.63,1.91,2.74,0.95,3.36,4.32,5.08,3.26,4.74,1.31,2.25,-0.54,0.87,-0.10,-1.21,0.14,1.60,2.04,-0.93,-0.27,0.99,-0.16,0.21,0.69,0.90,-1.53,-1.64,2.15,0.32
"ex4791",0.47,-0.09,0.34,1.27,1.82,1.09,2.30,1.50,1.49,1.74,2.27,1.61,2.52,4.40,5.79,5.03,4.21,2.72,2.03,1.02,0.02,-0.53,-1.88,-0.14,-0.72,0.78,1.01,1.01,0.73,-1.30,1.18,0.23,0.08,-0.70,-0.61
"ex4792",-0.74,2.29,0.95,4.18,3.73,4.90,5.24,4.73,2.53,3.56,0.72,2.07,1.97,0.30,0.92,-1.64,0.40,0.15,-1.09,0.35,2.00,-0.68,0.23,-1.71,-0.90,-1.22,0.15,-1.56,0.86,-0.23,0.36,0.16,-1.33,0.14,-1.10
"ex4793",-0.74,1.38,-0.50,1.30,0.65,0.54,-0.89,-1.58,0.33,2.60,1.90,3.37,2.85,3.61,5.19,6.37,5.03,1.74,1.81,1.06,-0.46,-0.45,0.15,2.17,0.03,-0.98,1.16,-0.34,0.69,0.88,1.04,-0.33,0.62,0.35,0.31
"ex4794",-0.32,-1.40,-1.32,-1.42,0.76,-0.71,2.53,3.76,3.39,4.03,5.93,3.14,3.92,4.40,5.72,2.05,0.59,-0.84,-0.24,-0.08,0.87,-0.20,-1.09,0.09,1.04,-0.64,0.67,0.27,-1.23,-0.70,-0.05,1.39,-0.61,0.13,-0.46
"ex4795",-0.77,-0.92,0.60,3.59,1.03,2.67,4.47,3.03,3.73,3.11,3.07,4.09,2.14,0.03,0.19,1.79,-0.28,0.99,0.68,1.57,0.85,-0.08,-0.62,-1.27,-1.43,-1.72,0.30,-0.16,-0.46,1.72,-1.46,-1.35,-0.51,1.10,-0.41
"ex4796",-2.00,0.00,0.28,2.26,3.99,5.52,4.01,5.13,3.88,1.54,0.14,1.47,-0.68,0.08,0.94,0.30,0.73,-0.51,-0.89,1.16,0.89,-0.11,0.07,-0.97,0.73,-1.06,-0.71,-0.05,0.56,1.14,-0.01,-1.50,0.13,0.52,1.93
"ex4797",1.66,0.91,0.48,1.06,0.95,3.60,3.42,3.57,4.56,2.88,3.42,2.48,-0.28,0.11,1.74,-0.43,1.30,0.80,-1.75,-0.96,1.19,-0.64,-0.34,-1.16,-1.72,0.65,1.03,-0.46,0.67,0.83,-1.47,0.07,0.16,0.35,0.71
"ex4798",0.47,-2.51,1.66,1.70,3.29,1.51,2.73,3.82,4.26,3.76,1.71,2.72,3.54,2.29,1.56,2.34,-0.98,-0.76,-0.85,-0.08,-0.33,-0.25,0.59,2.01,0.78,1.72,0.63,-0.25,0.48,0.09,-1.59,0.62,0.95,0.09,1.49
"ex4799",-0.39,-0.25,2.18,2.53,2.55,3.40,5.14,2.98,3.05,4.10,3.92,3.02,2.61,0.92,-0.42,0.60,-0.28,-0.56,-1.79,1.69,-1.30,0.28,-1.82,1.34,-0.79,-0.98,-1.00,0.77,0.27,1.16,0.06,-0.14,-0.78,-0.93,-0.83
"ex4800",1.35,0.22,1.43,0.40,-0.62,0.89,-1.77,1.92,1.91,4.74,4.03,3.84,3.94,4.35,4.32,1.29,2.74,0.54,0.85,1.64,1.20,-0.38,0.22,0.63,1.18,-1.03,0.46,0.74,0.91,-0.14,0.29,0.81,0.96,0.89,1.83
"ex4801",1.00,-0.11,1.65,3.09,3.73,4.96,5.92,6.17,5.17,2.05,2.54,1.56,2.40,1.03,-1.55,0.36,0.26,0.06,0.85,-0.25,-0.12,-1.04,-0.57,-0.76,1.86,-0.98,0.89,-0.13,0.33,-0.19,-1.11,1.48,-0.77,0.24,1.04
"ex4802",-0.74,1.55,-0.39,-0.80,-0.33,0.57,1.34,1.27,1.83,3.45,4.70,4.73,4.01,5.85,3.25,2.50,3.15,-0.17,1.12,-0.83,0.48,0.94,0.68,-0.54,-1.72,0.92,-1.17,-1.66,0.01,-0.95,0.20,0.38,1.88,1.06,0.38
"ex4803",-0.69,1.69,0.77,2.36,4.60,1.16,3.67,5.69,0.53,3.27,0.05,1.71,1.25,2.67,1.59,0.55,-0.28,-0.45,1.39,0.13,-0.52,0.29,0.98,-1.25,-1.18,1.37,0.32,-0.80,0.21,0.52,-0.03,0.83,0.42,-0.59,0.33
"ex4804",1.86,-0.76,0.87,-0.94,-0.67,2.43,1.92,2.35,3.01,3.29,5.08,4.18,4.87,3.97,3.21,2.69,0.71,2.12,1.59,0.42,1.14,-1.14,-0.03,2.09,-1.09,-1.45,0.30,-1.10,0.27,-2.02,-0.85,0.29,-0.75,1.53,-0.75
"ex4805",0.31,-0.11,2.43,2.54,1.70,3.99,3.46,1.58,2.90,1.47,1.02,2.97,1.43,2.71,2.70,2.31,2.89,0.63,1.07,-0.82,-0.75,-0.75,2.61,-0.66,0.84,-0.52,1.01,0.19,-1.02,-0.27,1.73,1.58,0.36,-0.74,-1.38
"ex4806",-1.04,-0.42,1.99,2.63,0.98,0.83,3.23,2.93,2.55,2.27,1.41,2.44,1.28,1.31,2.96,1.09,1.61,1.34,1.28,1.03,-0.76,0.63,0.27,1.71,0.79,-0.24,-1.45,0.65,-0.41,-0.24,-0.18,-0.58,-1.86,0.40,0.00
"ex4807",-0.93,0.72,1.19,-0.24,2.87,3.00,4.64,2.73,5.16,6.06,5.08,4.30,1.64,1.19,1.33,2.09,0.75,0.26,-1.41,-1.14,1.35,-1.49,0.06,-0.27,-0.41,-0.58,-2.12,-1.67,0.87,2.09,0.13,0.65,-1.12,-0.03,-0.70
"ex4808",-0.35,0.36,1.20,1.14,1.56,1.84,3.51,4.58,5.35,4.12,5.28,3.66,2.27,2.31,0.50,-1.28,0.42,-0.21,0.46,1.15,-1.66,0.47,-0.55,0.26,-0.70,-1.42,0.37,0.70,-1.04,-0.78,0.86,1.21,-1.15,-0.47,0.54
"ex4809",-1.23,-2.79,0.64,0.52,-1.00,1.36,2.24,3.74,3.06,3.90,4.55,5.67,3.48,2.43,3.63,3.14,0.57,-1.66,2.12,-1.50,-2.33,-0.12,0.05,0.41,-1.08,-0.66,1.13,0.00,0.46,-1.17,0.88,-0.24,1.10,-0.08,0.00
"ex4810",0.38,0.19,0.84,3.24,2.09,4.00,5.16,4.91,2.79,3.28,2.45,1.54,0.69,0.52,-0.64,-0.27,2.78,-2.49,1.46,0.36,-1.52,1.27,-2.08,1.23,-0.62,-0.03,0.25,0.37,0.19,-0.81,-0.44,0.54,-0.13,-0.53,-0.33
"ex4811",0.02,-0.66,-0.06,1.77,-0.18,-1.40,-1.09,-0.62,0.98,2.62,2.51,3.12,4.78,5.73,6.86,2.89,1.47,2.85,3.55,1.92,-1.95,-0.54,-0.55,1.66,0.09,-0.09,-0.91,0.16,-0.18,-2.77,0.40,-0.36,-0.83,-0.38,0.00
"ex4812",-0.37,-1.11,0.09,0.13,-2.42,0.19,0.66,1.41,1.00,2.65,4.28,5.03,4.52,5.82,3.15,3.23,2.57,2.57,1.69,1.20,-0.58,0.34,-0.25,0.72,-3.17,0.12,-0.86,0.79,-1.14,-0.34,-0.43,-0.21,-2.52,-0.19,-0.82
"ex4813",-0.80,1.54,2.78,2.05,4.18,5.81,3.51,3.80,3.20,3.39,0.63,1.83,0.07,0.43,2.79,3.26,-0.93,-1.10,-0.11,-2.11,-0.88,-0.00,-0.76,-0.41,0.50,-0.43,0.40,2.17,-1.08,0.66,-0.54,0.32,-2.18,-0.10,2.34
"ex4814",-1.81,1.38,-0.88,1.93,-0.06,-1.49,0.86,1.42,-0.25,2.72,1.45,4.06,3.85,5.28,4.59,4.80,4.99,1.32,0.95,-0.37,1.11,0.81,-1.48,-0.00,0.98,-1.57,0.14,1.20,-0.95,-0.59,-0.38,-0.05,0.67,-0.37,1.97
"ex4815",0.51,0.60,2.55,0.07,0.98,1.68,1.89,1.34,2.91,2.40,2.33,3.00,3.05,2.78,5.05,4.59,2.00,2.00,0.37,-0.04,-0.44,-0.45,0.44,-0.20,-0.12,1.20,0.86,-2.27,-0.91,0.70,-1.45,-0.88,0.13,0.32,0.56
"ex4816",-0.52,1.15,1.18,0.09,-0.29,0.39,1.16,3.01,4.24,5.18,6.93,4.05,3.94,2.06,1.44,1.03,0.88,-1.29,-0.07,1.22,-1.91,-0.45,0.15,-1.28,-0.52,-1.37,0.11,-0.44,0.84,0.04,-2.14,-0.01,-0.15,1.61,-0.34
"ex4817",1.50,-2.51,-1.50,0.40,-0.30,1.51,2.18,3.25,4.06,3.66,6.38,3.42,3.76,3.34,3.02,0.57,-1.35,0.78,1.75,0.41,0.67,0.73,0.89,0.48,-0.70,-1.45,0.89,0.72,-1.38,-1.15,-0.35,-0.31,-0.48,0.18,-0.59
"ex4818",0.57,-1.21,-0.01,0.42,-0.44,1.61,1.28,1.14,1.08,0.71,2.93,2.85,4.23,2.31,3.75,3.37,2.48,1.18,1.07,1.23,1.21,0.29,-0.93,0.40,1.49,-0.44,0.35,0.17,0.51,-2.12,1.32,0.29,0.12,0.33,1.17
"ex4819",-0.56,0.73,-0.43,0.06,1.35,1.55,0.66,3.54,3.25,4.60,4.50,4.61,6.16,3.52,2.91,1.95,0.38,1.73,0.30,-1.10,-1.27,1.42,0.12,1.34,1.45,-0.88,-0.19,0.27,-0.23,1.83,-0.18,-0.71,1.63,-0.57,-1.89
"ex4820",0.39,1.79,1.21,1.20,3.50,5.50,4.80,5.36,5.12,3.03,2.16,1.67,0.77,-0.13,1.59,-0.06,0.05,1.65,0.02,-0.79,-0.39,0.92,1.10,0.58,-1.09,0.03,0.85,-0.05,-1.94,-0.15,-0.15,1.14,-1.28,0.81,0.46
"ex4821",-0.33,0.03,1.35,-0.40,-0.42,1.68,0.36,1.22,1.74,1.98,2.97,3.01,4.79,5.09,4.62,3.79,5.15,3.57,2.87,1.30,-0.62,-0.33,-0.40,0.08,0.48,-0.77,0.84,0.09,0.36,0.96,-0.50,1.34,-1.36,-0.27,1.51
"ex4822",-0.91,2.09,0.11,0.94,2.37,2.88,3.65,3.90,2.88,3.79,4.84,2.17,3.25,1.91,0.24,1.05,1.14,0.13,-0.16,-0.01,2.01,-0.56,-1.28,0.50,-1.34,0.62,-0.30,0.71,-0.52,0.15,0.67,0.25,0.17,-1.10,-0.02
"ex4823",1.49,-1.02,0.29,2.38,-0.41,3.48,2.05,5.25,4.25,6.13,6.19,4.71,2.77,3.46,1.39,1.45,2.32,0.96,-0.21,-1.82,-0.77,0.14,-1.07,-2.53,1.23,-0.72,-0.22,0.10,-1.75,-1.56,0.50,2.42,-0.65,0.07,-0.14
"ex4824",1.59,-0.01,0.20,2.44,3.00,3.97,3.68,4.17,4.14,2.02,1.34,1.56,1.82,0.20,2.46,2.26,1.56,2.87,-0.85,0.13,1.20,1.26,0.67,-0.88,0.22,1.11,1.58,-0.56,-0.64,0.33,0.09,0.73,0.66,-1.40,-0.08
"ex4825",0.58,-0.72,1.23,0.02,-0.46,0.04,1.55,3.20,4.02,5.11,6.92,5.79,3.75,2.94,4.23,1.58,-1.92,-0.40,-1.18,0.78,1.37,-1.08,-0.80,-0.85,2.44,0.67,1.33,1.98,0.09,-0.99,0.76,1.50,0.63,0.60,-0.31
"ex4826",-1.98,1.40,1.69,0.17,2.24,1.60,2.17,1.92,3.07,3.60,3.74,2.43,3.35,3.73,1.48,0.90,-1.13,-0.58,1.67,1.24,0.21,-0.13,1.66,-0.20,1.54,1.39,-0.92,0.00,0.65,0.69,2.00,-0.28,0.29,-1.22,-1.54
"ex4827",-0.35,-0.47,0.46,-0.32,-0.94,0.51,3.01,-0.05,0.09,1.77,2.81,3.78,3.38,4.41,3.96,4.13,4.29,2.59,0.26,1.19,-1.03,-0.22,-1.93,0.69,-0.32,-1.26,2.35,1.74,0.24,-0.87,-0.96,-0.27,-0.17,0.74,0.82
"ex4828",0.92,0.42,0.22,0.62,0.35,-0.78,-0.10,0.16,0.95,0.89,1.76,4.22,5.48,4.01,6.89,6.35,4.35,1.89,1.96,0.52,1.19,-1.70,2.45,0.14,0.95,-0.23,0.73,0.76,0.13,-0.57,0.18,1.15,-0.74,-0.98,1.32
"ex4829",-0.65,-0.37,-0.59,1.13,-1.19,-0.26,1.40,1.67,1.78,1.95,4.56,5.36,3.63,4.62,4.05,5.52,3.04,3.06,0.76,0.48,-0.10,0.33,-1.02,-0.07,-0.69,1.01,-0.57,0.59,-1.33,-1.15,0.64,0.33,0.72,0.24,1.11
"ex4830",1.46,0.67,1.72,2.09,3.43,4.57,2.40,3.89,2.31,1.97,1.48,0.72,1.12,1.94,-0.12,2.02,0.81,0.60,2.32,-1.08,0.66,-0.12,-0.91,-1.19,-0.84,0.67,-0.67,0.83,-0.37,-0.96,-1.80,-0.22,0.22,-2.49,0.49
"ex4831",-0.21,-1.60,-0.73,-0.06,0.29,1.33,-1.42,0.96,0.84,3.92,3.17,4.39,3.23,5.27,4.62,1.50,1.43,1.25,3.19,0.96,1.74,-0.23,-1.22,0.45,-0.00,-1.35,-0.76,2.45,-0.88,-0.73,0.03,1.10,0.07,0.37,0.70
"ex4832",-2.41,1.13,1.32,1.66,-0.38,2.02,4.58,3.42,4.21,3.06,5.74,1.86,1.15,2.93,1.86,0.61,-1.59,0.47,1.07,0.39,-0.92,-0.04,0.58,-0.44,-1.13,0.29,1.43,1.50,0.10,-0.41,-0.98,-0.39,0.01,0.26,-2.14
"ex4833",-0.33,-0.62,-0.83,-0.78,-0.78,1.40,1.10,2.30,2.40,3.87,5.10,6.08,3.18,5.68,3.49,1.77,0.22,-0.29,-0.75,-0.22,-0.66,-1.26,-0.66,0.25,0.27,1.35,1.38,-0.31,-0.77,-0.11,0.08,0.40,0.74,-0.69,0.01
"ex4834",0.43,0.42,-0.11,1.51,0.08,1.42,1.48,-0.72,0.26,0.50,0.78,3.91,3.52,4.22,5.42,3.87,4.17,4.20,1.51,0.24,-1.31,-0.32,0.20,0.06,0.50,-0.48,0.46,0.31,-1.38,-1.36,0.56,0.15,-0.04,-0.01,-0.50
"ex4835",-2.09,-0.25,1.19,-1.20,0.30,1.80,2.91,2.58,4.67,5.02,6.04,5.16,3.13,1.54,1.54,1.79,0.33,-0.07,2.00,-0.15,-0.53,-0.94,0.39,0.69,-0.06,0.55,-2.01,0.62,0.10,0.76,0.61,-0.57,0.47,4.04,1.11
"ex4836",-0.44,0.11,-0.15,-2.11,1.18,1.88,0.95,1.27,2.39,2.72,6.23,3.04,4.04,6.27,5.67,2.92,-0.38,2.47,2.33,-1.16,-0.84,-1.04,-0.28,-0.03,1.04,-0.91,1.33,0.59,-0.12,-0.16,-0.62,0.91,0.28,-0.92,0.40
"ex4837",0.06,0.24,0.38,-0.52,0.58,1.72,0.43,0.20,0.16,1.42,4.20,2.66,2.73,4.86,3.56,4.68,2.05,2.04,-0.46,-1.61,-0.64,0.14,1.60,-0.51,-0.41,0.20,0.33,0.07,-0.18,0.25,0.90,-1.16,-0.13,-1.09,-0.72
"ex4838",-1.19,0.52,0.21,1.87,5.05,6.33,3.69,3.99,2.45,0.98,2.84,-0.54,-0.66,0.61,1.32,0.18,1.93,0.75,-1.48,0.42,1.07,-2.46,-0.55,1.07,-0.46,1.43,-0.33,1.39,-0.11,0.04,-1.11,-0.88,-0.26,-0.07,0.54
"ex4839",-0.90,0.53,2.42,2.99,1.07,3.95,4.06,4.01,2.96,4.22,4.70,1.81,1.66,1.24,0.95,-0.30,0.29,0.09,-2.08,0.48,-0.20,-1.60,-0.69,-0.13,0.30,0.52,-1.11,-0.71,1.61,-1.14,-1.04,-2.31,-1.08,1.35,-0.04
"ex4840",0.55,-0.81,0.74,3.20,2.67,1.87,2.10,0.05,1.40,1.25,1.97,1.89,1.54,2.43,3.79,2.50,1.10,0.83,0.88,-0.35,1.88,0.50,0.93,-0.05,-0.12,-1.99,-1.55,-1.48,-1.15,1.54,-0.87,-0.30,0.48,1.24,0.07
"ex4841",-0.55,-0.94,-0.11,1.12,-0.40,1.88,1.26,2.32,4.89,5.62,6.92,5.33,4.67,1.01,1.49,-0.74,-1.43,-0.86,-0.15,-2.37,-2.04,0.51,2.45,0.78,0.84,0.50,-1.27,0.56,0.91,0.61,0.28,0.32,0.20,1.68,1.06
"ex4842",-0.71,1.91,-0.27,0.84,1.33,1.43,1.73,1.12,1.29,1.64,2.83,0.70,4.28,4.64,4.75,4.63,2.53,3.51,1.57,-0.03,1.05,1.10,0.82,0.84,-1.31,-1.30,-1.35,0.26,0.24,-0.94,0.77,-1.08,0.01,-1.75,0.01
"ex4843",-1.92,1.23,0.86,1.14,1.05,1.09,2.33,0.93,0.54,1.99,2.32,4.59,2.54,4.67,5.67,2.24,2.40,3.00,2.41,1.82,-0.98,-1.18,0.99,0.47,-0.46,-2.24,-1.01,0.11,-0.50,-0.47,-0.08,1.11,-0.74,0.43,0.95
"ex4844",-1.03,1.14,-0.12,1.73,-0.54,-1.66,3.34,1.17,2.93,5.97,4.11,5.36,4.21,2.03,0.86,0.19,2.71,0.17,1.26,0.43,-1.25,-0.04,-0.97,-0.77,-0.04,-0.60,0.15,1.14,1.99,1.47,0.19,0.27,1.73,1.79,-0.89
"ex4845",-0.45,-1.02,0.62,2.19,2.08,2.41,5.62,0.90,2.52,1.21,2.86,2.85,1.49,1.32,1.56,2.21,1.86,1.31,0.33,1.14,0.45,1.61,0.04,0.48,-0.16,-0.49,1.03,-0.13,-1.37,0.61,-0.62,-0.77,-1.68,0.23,2.76
"ex4846",-1.34,0.95,-0.50,-0.46,-0.28,0.90,0.63,4.16,3.71,4.72,4.92,6.24,4.61,3.26,1.89,2.58,1.30,1.36,-0.06,-0.56,-0.01,-0.92,1.39,-0.00,-1.23,0.19,-0.16,0.14,-0.76,0.02,-0.09,0.54,-1.36,0.09,-0.92
"ex4847",0.70,-1.22,-0.96,-1.81,-0.54,2.17,3.71,3.89,2.17,3.98,4.97,5.24,5.30,3.80,3.29,1.94,2.27,1.39,2.09,0.04,1.92,-1.02,0.57,1.03,-1.34,0.92,0.07,0.37,-1.20,-1.31,0.55,-1.07,-0.32,0.76,1.64
"ex4848",0.72,0.45,1.83,1.40,3.80,4.59,5.79,5.38,3.96,3.83,2.17,1.59,0.08,2.09,-0.01,0.45,-0.33,2.26,0.90,-1.25,0.91,0.30,1.42,-1.29,0.23,-0.57,-0.18,3.16,-2.01,-0.81,-0.22,0.05,0.69,0.95,-2.09
"ex4849",-0.29,0.00,0.10,-1.33,-0.09,0.72,2.02,-1.13,3.60,2.10,5.79,5.86,3.83,3.12,2.91,2.17,0.67,0.12,1.75,1.25,1.71,-0.12,1.85,-1.08,0.82,0.59,-0.74,-0.77,0.05,-0.81,-0.01,-0.17,0.91,-0.97,-1.09
"ex4850",0.94,0.62,0.69,0.19,-1.42,1.35,1.22,2.72,4.88,5.15,6.33,5.01,5.57,5.54,3.17,2.19,-0.23,0.97,-1.51,1.10,0.81,1.27,0.94,0.20,0.14,-0.45,1.08,0.32,0.39,0.47,-0.38,0.40,0.03,0.00,-1.74
"ex4851",0.44,-0.68,0.21,1.13,1.12,4.24,2.46,3.28,4.36,5.65,5.31,3.18,4.99,1.74,1.73,0.45,1.94,-0.40,0.96,1.03,1.14,0.42,0.02,0.87,0.01,0.05,0.08,0.02,-0.11,1.41,-0.70,0.25,-1.28,1.82,0.68
"ex4852",0.66,-0.12,-0.34,1.42,1.33,2.36,0.63,1.50,2.13,4.38,5.91,4.65,3.99,2.20,1.46,0.85,-1.58,0.57,-0.17,-1.52,1.37,1.30,1.46,1.82,0.02,0.33,0.10,-0.58,1.13,-0.52,-1.77,0.33,-0.03,-1.04,-0.64
"ex4853",-0.47,-1.74,0.94,-0.88,0.40,-1.30,0.07,0.27,2.51,1.60,1.10,4.34,4.34,5.78,5.45,3.41,3.97,2.05,2.35,0.93,-0.86,-1.40,-1.01,0.67,0.01,-0.20,-0.12,-0.06,-3.03,-0.02,-0.43,-0.66,1.76,-2.10,0.25
"ex4854",0.50,0.22,0.61,2.71,1.15,0.84,-0.92,1.24,0.61,4.29,3.79,3.19,4.27,3.87,5.16,4.27,0.64,2.03,1.34,1.89,-0.40,0.50,-1.77,-1.15,0.57,0.06,0.39,0.34,0.79,0.17,1.61,-0.75,-0.68,0.54,-0.67
"ex4855",-0.97,-0.63,-0.32,0.36,0.66,1.72,3.81,4.17,4.99,3.26,3.61,4.72,3.48,2.42,1.35,1.26,1.47,0.02,0.57,0.06,-0.02,1.11,-0.87,1.25,-0.66,0.57,-0.53,-1.45,-2.29,2.11,0.81,-0.08,-2.17,-0.91,2.00
"ex4856",-0.28,-0.76,1.48,0.64,1.82,1.19,2.81,2.70,4.09,4.91,7.10,4.40,3.96,2.56,1.07,-1.26,1.40,-1.28,0.72,-1.57,0.80,1.10,-0.33,-1.06,-1.46,-1.31,0.27,0.06,0.60,-0.14,-1.14,1.29,0.46,0.83,3.05
"ex4857",-1.54,0.38,3.40,1.19,1.64,4.19,3.56,3.51,1.46,1.07,3.24,0.05,2.68,0.13,3.32,0.89,-0.16,1.02,1.03,-0.22,-0.49,-0.22,-0.75,0.19,-0.52,-1.12,0.15,0.35,-2.42,0.31,-0.95,-1.02,0.35,0.53,0.12
"ex4858",-1.98,0.07,-0.63,-0.51,0.30,1.26,1.21,2.23,3.78,3.82,4.94,6.24,3.66,3.20,0.49,0.87,0.66,2.21,1.19,0.18,-0.38,1.60,-0.23,0.52,1.94,0.18,1.59,-0.34,-1.16,0.72,-1.30,-1.14,1.05,-1.11,0.87
"ex4859",0.61,0.04,2.82,0.50,1.58,3.20,3.76,3.20,3.10,2.51,1.40,2.19,2.13,3.37,4.94,2.35,2.00,1.72,1.70,1.56,-1.66,0.56,-1.39,1.32,-1.19,-0.72,0.80,-0.70,-1.64,-0.91,-0.22,-0.14,0.94,0.22,-0.79
"ex4860",-1.38,1.32,3.21,0.05,1.20,4.10,4.92,5.98,4.77,4.37,3.96,1.16,0.18,0.79,0.21,0.05,2.38,1.39,0.94,0.25,-0.17,0.68,0.78,-0.18,-0.83,0.50,-0.90,0.00,-0.30,0.23,0.53,0.78,1.43,1.12,-1.04
"ex4861",0.39,0.10,0.43,2.12,0.89,3.87,4.90,2.87,3.33,6.03,5.33,2.98,2.15,1.89,0.30,2.40,0.40,-2.23,-0.52,0.18,0.92,0.67,0.43,-1.03,-2.55,0.81,-0.12,-1.32,0.28,-0.36,0.64,-1.53,-1.30,2.35,2.50
"ex4862",-0.65,2.24,0.97,1.64,4.00,4.50,5.77,6.41,4.19,3.62,2.19,1.42,0.51,-1.44,0.99,1.05,-0.02,1.17,1.03,0.36,0.24,0.73,-1.08,-0.47,0.84,-1.36,0.57,0.21,0.71,0.24,2.94,0.07,2.00,2.23,0.14
"ex4863",1.58,-0.51,-0.31,-0.71,-0.51,2.13,1.84,3.14,2.23,3.56,5.70,4.98,3.36,3.80,2.46,0.80,-1.07,1.35,1.07,-0.89,-0.38,1.07,1.01,-1.23,1.74,-1.11,0.94,1.23,-0.15,-1.07,0.03,0.52,-0.42,0.18,1.25
"ex4864",-0.51,1.18,1.68,2.98,4.32,5.65,5.02,3.90,3.69,4.87,2.70,2.47,-1.85,1.56,1.04,2.14,0.42,-1.35,0.08,-0.85,-0.16,0.07,-1.88,-1.43,1.44,0.38,0.44,1.64,-0.73,-0.19,-1.14,-0.92,1.44,0.45,-0.04
"ex4865",-0.77,0.09,1.97,2.58,5.05,2.93,1.54,3.07,4.35,0.97,3.18,-1.14,1.44,1.13,2.00,0.14,0.84,0.62,1.47,0.44,0.97,-1.22,-0.49,-0.05,0.10,0.13,1.09,-0.82,-0.08,-0.89,-1.19,-0.30,0.50,1.17,0.80
"ex4866",1.43,0.16,0.81,1.20,1.64,5.30,5.18,4.65,3.59,4.44,4.97,3.18,2.20,1.18,-0.23,0.82,-0.59,-0.66,-0.37,-0.62,-0.09,2.14,0.75,-0.03,0.70,1.30,0.81,-2.59,-0.30,-1.33,-0.89,-1.43,-0.34,0.50,-0.88
"ex4867",-0.05,1.19,1.28,2.15,1.25,1.23,3.63,3.92,5.12,4.04,1.14,3.99,2.05,2.61,3.07,2.33,0.43,-1.50,0.42,0.69,0.89,0.48,-0.05,-0.69,0.67,0.44,-1.52,1.08,0.38,-0.84,0.98,1.08,-0.16,0.61,-0.55
"ex4868",0.33,0.31,-0.73,0.85,-1.18,0.90,2.74,0.37,-0.24,2.14,2.67,3.36,3.71,3.47,4.09,3.94,2.70,2.79,0.04,-0.16,1.96,1.18,-0.43,0.91,-0.39,-0.24,-0.49,0.21,-0.64,-0.42,-1.22,-0.08,-0.06,0.67,0.28
"ex4869",2.16,-0.35,0.61,-1.33,-0.54,0.43,0.29,0.35,0.39,1.09,2.73,4.55,4.07,6.06,4.62,5.34,4.91,2.06,1.83,1.30,-1.62,-0.72,-0.42,-1.80,1.34,0.83,-0.34,-0.53,1.02,-0.50,0.59,2.01,1.07,0.19,0.34
"ex4870",0.35,0.59,-0.02,0.50,2.30,1.49,4.04,2.02,1.69,2.59,1.40,2.64,2.50,4.03,4.67,2.47,0.64,1.29,2.30,0.08,1.47,-1.10,-0.84,-0.96,0.02,-1.40,0.96,-0.44,-0.60,-2.31,0.11,1.18,1.09,1.21,-0.71
"ex4871",-1.20,0.66,1.81,-0.25,0.29,0.80,0.51,1.18,0.33,1.24,3.19,2.98,4.24,2.73,8.18,5.30,2.75,2.04,0.19,2.74,-0.19,-0.56,-0.41,0.04,0.10,-0.44,-2.51,1.77,0.58,-0.20,-0.06,-1.77,-1.19,1.21,0.07
"ex4872",0.60,-0.12,-0.26,-1.26,-1.72,-1.94,1.61,0.64,3.07,1.89,4.37,4.60,3.90,2.72,2.05,3.63,1.89,1.63,0.03,2.62,0.93,-0.80,-0.66,1.06,0.47,0.33,-0.86,-1.43,-1.69,-0.14,0.54,-0.01,-0.10,1.01,2.25
"ex4873",-0.63,-0.53,-1.37,0.60,0.19,1.65,0.53,-0.31,-0.16,2.49,1.86,1.71,3.87,4.91,6.02,3.85,3.29,1.25,1.75,-0.30,0.75,0.22,-0.62,0.69,-0.76,-1.20,-0.27,0.43,0.22,0.34,-0.47,-0.87,-1.10,0.04,-1.53
"ex4874",-1.20,0.59,-0.54,0.91,0.73,1.38,1.24,2.05,1.83,0.41,1.96,1.81,4.82,5.52,5.92,4.71,1.99,2.33,2.33,1.13,0.16,-0.03,0.39,0.80,0.87,1.23,-0.38,-0.78,-0.51,0.93,-0.56,0.06,-0.27,-0.17,-1.41
"ex4875",0.54,-0.05,-0.19,0.52,2.32,-0.08,1.38,1.89,1.28,1.74,2.03,1.62,1.92,5.22,3.93,5.50,3.20,2.08,1.35,-1.12,0.80,-0.03,-1.18,0.25,-0.03,0.92,2.73,1.97,-0.50,0.20,1.11,0.86,-0.10,-1.40,0.16
"ex4876",-0.38,0.43,1.51,4.16,3.90,5.45,5.08,5.98,5.27,3.66,4.65,1.53,-0.36,-2.74,1.05,0.45,-0.12,-0.57,-0.16,-1.54,-0.39,0.36,0.51,1.03,-0.77,-0.81,-0.67,-1.41,0.69,0.19,-0.50,0.20,1.08,1.44,1.35
"ex4877",-0.08,1.99,0.84,4.41,4.78,5.17,7.11,4.57,5.48,5.38,1.51,1.18,0.37,-1.82,0.55,-0.30,0.40,0.05,0.38,-0.93,1.20,-0.43,1.85,-1.67,0.47,-0.46,-0.81,0.19,-1.06,0.87,-2.26,0.97,-1.04,-0.40,-0.09
"ex4878",-0.97,0.95,0.14,-1.45,-0.48,1.44,0.26,0.29,-1.78,0.92,1.78,1.87,4.11,4.23,5.75,4.80,5.01,2.50,1.32,-0.37,0.08,-2.09,0.54,-0.67,0.00,0.94,0.53,-0.52,1.63,0.59,2.72,-1.59,2.51,-0.22,1.50
"ex4879",-0.80,-0.93,-0.07,0.02,0.33,-1.20,-0.90,-1.09,-2.26,0.98,1.57,2.72,4.77,5.40,5.81,5.04,4.19,3.73,-0.43,-0.04,-1.38,0.91,1.05,0.34,1.00,-1.51,-0.75,0.39,0.40,-0.95,0.80,-0.84,0.36,0.18,-0.83
"ex4880",-0.34,0.82,1.10,0.52,-0.86,0.94,2.92,2.45,3.83,4.64,6.10,4.40,2.34,2.03,0.95,0.61,0.61,0.99,0.36,0.53,0.03,-2.29,1.30,1.52,-0.35,-0.70,-0.66,-0.81,-1.00,-0.58,0.42,0.00,0.68,-0.90,0.06
"ex4881",-1.28,-1.09,0.07,0.50,2.59,0.91,3.92,3.46,3.41,4.01,4.66,1.68,2.06,1.15,1.44,-0.48,-1.95,0.01,0.37,-1.99,1.15,-0.32,0.37,0.81,0.19,-0.12,1.42,-0.65,0.13,-0.89,-0.66,-0.94,0.32,1.47,-1.49
"ex4882",0.50,0.13,-0.12,-1.81,0.38,1.28,1.04,5.46,5.06,4.60,6.28,4.05,3.85,0.83,1.38,0.82,1.01,1.02,-0.08,0.09,0.23,-0.18,-0.59,1.46,0.08,0.25,-1.42,-0.91,-0.63,0.31,0.19,2.48,0.77,-1.20,1.10
"ex4883",0.47,1.03,0.22,2.63,2.40,2.25,3.92,4.60,3.01,3.75,2.35,2.63,0.75,1.54,0.88,-0.17,1.60,-0.91,-1.38,0.20,-1.29,0.09,1.42,-0.72,1.51,-0.83,0.60,0.54,0.24,-0.22,-0.35,0.63,1.45,0.99,-1.29
"ex4884",0.57,2.75,2.65,0.18,1.81,3.48,0.82,2.69,4.21,4.58,4.56,4.28,3.41,1.28,2.47,0.21,-1.04,-0.19,1.32,-0.78,1.11,1.18,-0.08,0.59,0.25,-1.63,0.94,-1.69,0.29,0.99,1.01,0.04,-0.53,-1.94,0.88
"ex4885",0.70,-0.06,1.40,3.68,3.83,6.56,6.19,5.69,1.62,1.93,2.52,1.90,0.33,0.05,0.95,-0.13,-0.48,-0.71,-1.23,1.05,0.91,-0.46,1.03,-0.43,-0.55,0.67,-0.03,1.39,-0.14,0.99,1.00,1.78,-0.32,-0.36,1.59
"ex4886",0.50,0.05,0.89,-2.16,0.03,1.71,1.97,2.33,0.42,-0.30,-0.06,2.15,3.75,3.07,4.56,2.88,3.40,0.95,0.98,1.43,-1.33,-1.08,0.35,0.40,1.48,-1.08,0.06,-0.18,1.32,-1.06,-0.58,-0.46,1.83,-1.52,0.77
"ex4887",-0.64,0.80,2.01,1.08,-0.41,0.88,1.86,0.18,4.37,3.21,4.81,4.61,3.32,3.44,5.12,4.22,2.47,0.98,1.50,0.42,-0.83,0.29,-1.64,-0.04,-0.83,0.24,-0.32,0.93,0.14,-0.70,-1.55,-0.27,0.47,0.18,0.66
"ex4888",-0.14,-1.13,0.70,2.92,5.53,3.71,4.58,2.94,3.88,4.32,0.96,1.98,0.03,1.09,1.38,0.61,0.71,0.09,-0.91,1.51,0.16,0.07,-0.44,-0.58,0.02,-0.93,-0.18,-1.05,-1.47,-0.73,-0.56,-0.41,0.72,-1.42,0.27
"ex4889",-1.11,0.97,1.24,0.92,3.90,2.70,6.35,2.74,6.53,5.20,4.19,2.01,1.59,-0.56,0.62,-0.08,-0.45,-1.27,-0.05,0.90,-0.28,0.04,-0.05,-0.02,-0.50,0.49,0.55,0.60,-1.69,0.17,1.35,-0.23,-0.49,1.57,-2.39
"ex4890",-0.68,0.13,-0.55,1.07,2.30,2.23,2.44,3.59,3.47,4.47,5.02,2.68,2.76,2.18,1.15,0.83,-2.08,-0.26,0.10,0.03,2.05,-0.56,-0.29,0.65,0.96,0.25,1.42,0.19,-1.13,0.37,0.57,0.01,1.09,2.41,-0.17
"ex4891",-0.88,0.14,-0.86,1.27,2.52,1.27,1.39,2.62,3.36,4.39,5.37,5.64,4.72,2.16,2.29,1.69,1.16,1.49,0.13,1.13,-0.34,0.65,-0.50,1.48,-0.93,0.90,1.22,0.42,0.16,-0.51,0.48,0.30,-0.35,0.50,-0.05
"ex4892",0.49,0.90,-1.23,0.50,1.61,0.47,0.41,0.59,0.87,2.04,1.62,3.71,4.15,4.22,6.07,6.37,2.53,3.35,2.85,2.93,-0.42,1.65,0.73,-1.02,0.73,-0.33,-0.34,-1.86,-1.40,-0.96,0.70,-0.96,0.01,-0.90,0.19
"ex4893",-2.35,-1.12,0.32,1.08,0.83,3.02,2.12,2.97,0.65,0.96,4.10,4.26,1.87,3.02,3.93,3.30,4.15,2.39,-0.66,-1.39,1.03,2.78,0.77,0.11,-0.84,1.73,-0.75,0.90,-0.93,1.15,1.60,-0.84,-0.15,-0.86,-2.04
"ex4894",0.12,0.26,-0.31,1.31,0.30,0.19,1.66,1.34,0.13,2.76,5.71,3.77,6.08,4.03,4.91,5.05,2.71,1.03,1.87,0.65,0.81,0.60,-0.06,1.81,-0.12,-0.40,-3.23,-1.10,0.75,-0.88,0.91,-0.11,1.13,1.05,-0.21
"ex4895",0.83,-0.59,-1.58,-0.64,-0.67,1.10,-1.02,-0.31,0.83,3.49,2.35,4.28,5.57,4.65,6.43,4.20,1.72,2.11,1.05,2.22,-1.03,-0.43,-1.26,0.23,-0.07,0.44,0.98,1.03,-0.72,2.07,-0.26,-0.46,0.06,-0.44,-0.04
"ex4896",0.46,0.56,-0.04,-0.93,1.94,3.96,1.63,3.66,5.60,1.69,3.91,3.20,1.32,1.74,0.84,0.70,-0.69,-0.06,0.60,0.48,0.08,1.09,-0.26,-0.39,-1.06,0.31,0.82,-0.86,0.78,-1.42,-0.31,0.40,1.84,-0.24,-0.69
"ex4897",-0.63,0.01,0.70,-0.59,0.93,0.01,0.58,0.25,0.79,0.93,2.02,1.55,3.26,5.03,2.36,3.56,2.76,3.78,2.99,1.07,-1.54,0.11,-0.45,-0.69,0.36,-0.09,0.05,-0.52,-0.66,3.47,0.74,-0.04,1.05,1.11,0.21
"ex4898",1.13,-0.44,1.65,0.44,-0.26,-1.51,-1.01,-0.47,1.07,1.23,4.19,4.08,4.06,6.44,5.58,3.75,3.74,2.55,1.71,0.98,0.42,-1.86,-0.83,0.17,-1.22,1.73,-0.43,0.20,-0.59,0.16,1.17,0.20,-0.03,0.91,-0.95
"ex4899",0.02,0.55,1.60,1.16,2.35,3.53,3.93,2.08,1.91,3.22,3.22,0.16,1.77,1.29,3.88,3.48,-0.31,0.36,1.24,1.01,0.57,0.04,-0.86,1.68,0.86,-0.96,0.32,1.85,0.77,-0.37,0.49,1.29,0.85,0.99,0.77
"ex4900",0.64,1.27,2.63,2.36,3.14,3.54,2.49,1.83,1.99,3.76,2.77,1.39,1.95,1.59,2.77,1.80,1.77,0.70,-0.55,-0.50,-1.45,0.52,-0.86,-0.39,0.01,-1.19,0.52,-1.33,1.32,-1.27,0.25,1.52,0.51,-1.94,1.90
"ex4901",1.15,1.58,-2.89,0.38,1.49,0.16,1.88,0.40,0.67,0.50,2.81,3.10,3.76,4.43,4.74,4.95,2.24,2.89,3.87,0.85,-0.06,0.36,-1.65,0.91,-0.30,-0.45,1.46,-0.65,-0.58,1.22,0.13,1.18,0.66,1.39,-1.06
"ex4902",0.21,-1.07,-1.11,-1.03,0.01,0.03,-1.57,-0.48,0.65,0.58,2.47,4.47,3.72,6.09,4.51,5.06,4.11,4.36,3.34,0.01,-0.47,-0.00,-0.82,-0.64,-0.77,-0.67,-0.43,-0.38,0.44,-0.62,0.07,0.61,-0.52,-0.57,2.07
"ex4903",1.01,1.85,2.54,0.45,3.13,3.72,5.46,5.12,5.01,4.00,1.95,2.30,-0.04,-0.55,1.28,1.09,-0.12,-1.80,-1.60,-0.29,0.87,-1.07,0.47,1.94,2.12,0.13,0.02,0.22,-2.65,-0.71,-0.24,-0.83,1.56,0.80,-0.70
"ex4904",-0.57,2.40,1.47,2.19,2.33,4.47,4.73,4.35,3.85,1.12,1.01,1.25,1.80,0.60,0.45,-0.98,-0.08,0.14,-0.73,0.50,-0.04,0.29,-0.10,-1.29,0.83,-0.60,1.42,-1.02,0.79,-1.24,-0.74,0.26,-0.45,0.12,1.74
"ex4905",1.30,0.99,0.60,1.18,1.90,1.81,3.09,1.48,3.10,4.80,3.00,3.46,2.21,2.05,0.48,-0.02,1.11,-0.93,-1.01,0.88,-1.07,-0.01,-0.76,1.69,-0.57,1.28,0.30,0.62,1.09,-0.80,0.88,-0.05,-0.25,0.07,2.63
"ex4906",-1.02,0.84,-1.37,0.50,1.26,0.19,1.15,0.95,-0.50,0.04,2.65,2.89,3.60,5.78,5.08,7.56,5.72,4.04,1.25,-0.36,-1.42,-1.08,-0.09,-0.73,-0.59,-0.69,-0.63,1.10,0.20,0.08,0.63,-0.72,2.46,1.05,1.90
"ex4907",-0.21,0.28,0.84,3.12,2.94,4.06,4.64,6.84,4.94,2.76,2.33,2.03,2.89,0.44,0.82,2.14,-0.08,0.26,0.06,0.55,0.74,0.75,-2.45,-1.43,1.34,-0.62,0.19,-0.73,-0.51,-0.99,0.61,0.13,0.74,1.88,0.20
"ex4908",0.95,-1.30,1.10,-1.29,1.26,1.17,1.99,3.38,3.52,7.86,5.00,5.62,4.16,3.28,2.49,2.01,1.05,-0.32,-0.85,-0.50,1.20,-0.06,1.07,-2.14,-1.39,0.61,-1.06,0.77,-0.41,0.46,-0.23,0.58,0.22,0.49,-0.65
"ex4909",0.02,0.96,1.63,3.39,3.03,4.99,5.98,4.94,4.14,3.20,1.29,2.38,-0.58,1.35,1.78,0.21,1.41,-0.81,-1.34,0.26,0.52,-1.78,-0.10,0.88,-0.53,0.65,0.29,0.63,-0.87,-0.37,-0.26,0.99,-0.84,-1.31,-0.61
"ex4910",-1.08,-0.55,0.87,0.26,-1.14,0.99,-0.98,0.29,2.07,1.39,3.46,4.38,4.68,2.89,3.90,4.18,3.64,2.94,1.55,2.12,1.07,0.49,-0.50,-1.12,1.21,-0.90,-0.76,0.01,-0.78,-0.55,0.93,1.31,-0.40,-0.36,-1.21
"ex4911",1.50,-0.82,1.06,2.04,-0.20,0.56,1.73,-0.13,0.33,3.19,3.56,4.12,2.47,5.67,4.48,4.17,3.13,1.06,0.92,1.79,0.10,0.52,1.71,-1.02,0.21,2.37,0.74,-0.24,0.44,-0.34,-0.86,0.64,-0.78,-0.28,-0.40
"ex4912",2.04,0.01,0.08,1.94,1.54,2.28,3.74,2.81,3.91,4.72,3.94,2.41,1.66,-0.45,2.20,-0.16,0.32,2.08,0.63,-1.94,2.09,1.17,-0.31,2.24,-0.00,-0.44,1.24,-0.44,-1.38,-1.24,0.34,0.91,-0.50,-0.29,0.71
"ex4913",1.63,-1.06,2.24,0.76,4.02,2.94,3.75,3.89,3.43,3.23,1.51,3.55,2.00,1.23,2.65,2.79,0.61,-0.57,-0.25,0.69,-0.31,1.34,0.57,-2.23,-0.09,0.34,0.73,-0.66,-1.58,-0.18,0.04,2.13,0.28,-0.71,1.60
"ex4914",-0.88,1.19,-0.49,-0.11,0.75,2.04,3.62,1.57,3.19,3.93,4.08,4.49,3.01,2.25,0.05,-0.64,-0.83,-1.13,-0.04,-0.85,-0.99,0.22,-0.24,-1.42,0.63,0.07,-0.98,0.29,-0.24,-0.80,-0.11,-2.85,-0.76,1.03,-0.77
"ex4915",-0.86,1.34,2.05,2.53,4.54,5.35,4.99,7.23,5.17,3.55,2.33,1.42,-0.14,1.16,-0.58,0.56,-0.88,0.78,-1.15,0.44,0.38,1.43,0.42,0.17,-1.35,0.29,1.15,0.18,0.51,0.92,0.43,-1.96,-0.53,-0.59,1.61
"ex4916",-0.17,1.17,-1.47,1.02,-0.35,0.78,3.27,1.63,0.90,1.74,2.83,2.77,4.16,3.65,4.17,3.26,3.03,2.23,2.27,-1.16,-1.40,-1.12,-0.34,-0.34,-0.56,-1.04,0.09,-1.06,-1.14,-0.19,0.63,1.32,-0.25,0.83,-0.84
"ex4917",0.17,-0.38,0.53,1.63,1.04,0.21,2.26,1.78,2.27,1.88,3.82,1.85,4.25,4.05,4.20,2.93,2.90,3.58,2.27,2.91,-2.28,-0.05,-0.53,0.41,1.39,0.20,0.81,-0.70,1.00,-0.67,0.56,-0.23,-0.83,0.82,1.01
"ex4918",-1.60,0.85,0.79,0.33,-0.53,1.10,3.41,2.28,4.87,6.45,5.52,5.19,3.54,0.70,3.90,2.22,1.20,1.54,1.28,0.14,-1.33,-2.29,0.73,0.41,0.27,1.73,1.14,0.05,0.11,0.45,0.34,-0.63,0.24,0.23,1.67
"ex4919",-1.32,0.06,-2.22,0.17,1.34,2.76,2.12,4.59,2.67,2.65,5.56,4.15,2.23,2.31,1.98,-0.99,0.30,-0.83,1.34,-1.21,-0.76,-0.96,0.24,-1.02,0.28,-0.68,0.04,-0.97,0.12,-0.80,-0.33,-1.08,-1.12,-1.40,0.31
"ex4920",2.04,-0.28,-0.26,2.52,-0.24,4.32,3.96,2.99,4.46,4.64,4.53,5.46,2.43,2.84,2.23,1.26,0.88,0.71,1.14,-0.51,-1.40,-0.64,0.01,1.98,0.76,-0.05,-0.58,0.06,-0.94,-0.34,1.23,-0.11,1.17,-0.53,-0.99
"ex4921",0.87,-0.05,-0.81,1.76,1.07,0.31,2.28,0.83,1.05,2.51,2.71,2.31,2.89,3.48,4.36,3.86,2.59,3.38,0.56,0.83,-2.08,0.93,1.05,-0.47,1.23,0.82,-0.74,0.29,0.06,-0.33,1.14,-1.44,0.35,0.91,0.34
"ex4922",0.18,1.22,-0.63,-0.81,-0.48,1.83,0.92,1.28,2.62,2.12,4.85,2.94,3.05,5.23,4.72,2.09,2.79,-1.05,-0.25,0.07,-0.40,1.02,0.68,1.49,-0.29,-0.32,2.18,0.01,0.34,0.75,0.55,1.26,0.05,-1.52,0.88
"ex4923",0.31,-0.48,-0.80,0.81,0.49,0.41,0.90,2.21,3.22,5.33,5.84,5.60,2.85,2.57,3.03,2.74,2.17,-0.48,-0.28,-1.36,2.05,1.17,0.20,-0.82,-0.18,-0.77,-0.97,0.25,-2.29,1.54,1.08,-0.58,1.39,-0.10,-0.09
"ex4924",0.02,-0.23,1.99,-0.03,0.56,2.82,3.24,5.65,3.91,4.92,4.96,5.88,1.03,0.21,1.61,2.84,1.98,1.49,-0.14,1.05,-0.07,-2.14,0.94,-1.24,-0.26,0.93,-0.87,0.65,0.05,-0.28,0.31,-0.25,1.03,-0.04,-1.53
"ex4925",-0.83,1.04,-0.83,-0.36,-0.78,1.53,1.72,2.32,3.64,4.80,4.57,2.87,4.17,3.20,1.23,0.06,-0.18,-0.49,-0.38,-1.05,-0.21,0.67,-0.34,-2.07,0.55,0.59,-0.05,-0.64,0.44,-1.67,-0.74,-0.20,0.43,0.22,0.92
"ex4926",0.45,1.94,2.55,-0.11,1.19,3.03,2.00,2.67,2.11,1.41,0.70,2.50,3.37,2.36,4.92,2.80,3.03,2.83,1.46,-0.48,-0.80,0.52,-1.53,-0.19,-1.78,1.25,2.07,0.95,-0.61,-0.45,-0.33,0.18,-1.05,2.02,-1.09
"ex4927",1.06,0.58,0.85,4.27,3.41,6.41,5.56,3.86,3.26,3.03,1.55,1.59,-0.91,0.84,1.00,-0.16,-1.28,-0.20,-0.10,-0.43,-0.73,-0.80,0.74,-0.02,1.34,-1.43,-1.11,-0.71,-0.13,-1.15,-1.75,-1.19,1.75,-0.52,-0.25
"ex4928",-2.89,1.32,0.32,2.42,-0.72,0.39,-1.41,0.85,-0.41,1.43,2.04,1.67,3.59,4.78,5.27,5.72,3.94,2.50,2.61,1.28,-0.40,1.08,0.52,0.06,0.42,1.37,-0.97,-1.75,-1.61,0.44,0.81,-1.01,0.02,-0.96,-0.93
"ex4929",-0.30,-0.46,-0.79,-0.25,-0.36,0.56,1.32,0.66,0.66,2.71,2.04,3.58,6.05,5.69,4.97,5.06,2.57,2.85,0.23,1.13,0.88,0.76,-0.94,-0.62,0.79,-2.21,0.74,-1.71,-0.13,-0.63,-0.36,-0.41,-1.11,0.23,0.71
"ex4930",-0.29,-1.99,-1.36,-0.17,1.07,0.83,2.09,1.12,3.25,4.56,4.00,4.58,4.43,2.08,2.51,1.14,0.70,1.94,0.66,0.04,0.17,1.24,0.65,-1.12,0.34,1.05,-0.92,0.57,0.35,1.13,0.42,-0.16,0.59,-0.66,-1.15
"ex4931",1.95,1.67,1.97,3.07,3.74,4.80,5.89,4.17,4.18,1.05,1.20,3.14,1.67,2.72,0.11,-0.23,0.90,0.07,2.11,0.92,1.19,-1.63,0.46,-0.66,0.05,0.22,0.21,-0.17,0.90,0.28,-0.99,0.77,0.39,0.54,-0.82
"ex4932",0.08,-0.20,0.40,-0.37,1.10,3.36,1.62,1.48,0.84,0.01,3.74,2.85,0.99,3.57,6.20,4.36,2.81,3.09,-0.70,1.04,-0.33,2.01,1.01,-0.13,-0.88,0.51,1.60,0.32,-0.64,-1.25,0.28,0.25,-1.04,-0.30,0.28
"ex4933",-1.47,0.76,0.28,2.89,0.74,1.75,1.81,1.74,1.53,1.26,1.50,2.82,1.46,4.47,3.32,4.27,3.55,2.84,0.38,1.47,-0.23,-1.09,1.70,-1.86,0.34,0.12,-0.88,0.80,0.28,0.59,-0.90,-0.80,2.19,0.10,0.39
"ex4934",0.97,0.85,2.54,2.59,1.97,5.84,5.32,1.70,3.65,3.81,2.27,0.03,0.22,1.36,-0.64,0.38,0.22,1.23,-1.16,0.29,1.27,-0.07,-0.91,0.04,-0.44,0.88,0.67,-0.36,0.04,0.42,1.77,-1.26,0.22,-1.86,0.86
"ex4935",-0.68,-1.19,-0.72,-1.24,-0.84,0.40,-1.12,0.95,0.07,1.03,3.34,4.27,3.95,3.67,5.21,4.21,4.01,1.83,2.60,-0.15,-0.16,2.42,-1.04,-0.86,0.92,0.62,0.03,-0.03,0.45,1.69,0.89,1.16,-0.04,2.53,0.01
"ex4936",-0.63,1.61,-0.21,-0.94,-1.56,0.08,-0.12,0.21,1.69,2.22,3.02,1.84,3.56,5.18,5.75,3.59,1.89,3.63,0.27,1.16,0.96,-0.60,-0.47,0.22,0.48,-0.44,-1.18,0.46,-0.77,-0.50,0.34,-1.46,-1.00,-0.31,-0.47
"ex4937",-1.40,1.93,0.81,-1.26,1.97,2.04,4.45,1.95,4.43,4.99,4.41,5.11,5.16,3.55,1.30,-0.50,-1.69,0.71,-0.99,-0.21,-2.81,0.84,0.61,0.69,1.08,-0.20,0.40,-0.56,0.03,0.98,1.76,1.11,-0.66,-0.34,0.08
"ex4938",-0.74,0.60,0.66,1.68,0.09,-0.40,-1.57,-0.42,-0.29,1.40,0.40,5.29,2.38,2.71,8.47,3.83,5.47,3.58,0.37,-0.55,-0.62,-0.84,-1.24,0.03,-0.30,0.09,0.52,1.41,-0.57,0.44,2.41,0.39,-0.94,0.45,-1.60
"ex4939",-1.81,-1.36,1.50,0.92,2.27,2.94,3.94,3.62,4.13,4.10,3.20,1.06,1.99,0.94,2.90,0.50,-1.03,1.27,-1.24,-0.56,2.14,-0.38,-0.31,-0.02,-0.10,0.59,0.73,0.49,-0.95,-0.16,1.49,-0.05,-1.80,0.55,0.67
"ex4940",-0.10,-0.30,-0.55,0.43,-0.74,0.55,2.37,3.59,3.98,4.24,3.19,4.99,2.61,2.58,2.89,4.43,1.39,1.69,1.65,0.66,0.22,-0.34,0.08,-1.28,1.60,-0.82,-1.18,-0.40,0.26,0.28,0.68,-0.27,-2.11,0.31,-1.27
"ex4941",-0.45,0.03,-1.24,0.11,0.66,1.68,0.45,0.56,1.58,1.83,2.99,2.98,2.86,5.57,5.76,5.48,5.05,3.31,1.64,0.21,2.20,-0.17,1.09,-0.40,-0.98,1.58,1.51,-0.50,-1.28,0.66,-0.52,0.29,-1.47,-0.78,-0.57
"ex4942",1.19,0.61,2.30,0.57,2.04,2.23,3.25,3.55,4.72,3.59,5.59,3.04,1.77,1.70,1.11,1.22,-0.16,0.24,-1.09,-1.08,-0.41,0.14,0.25,0.04,-1.08,-2.00,1.17,0.08,1.34,0.23,0.92,0.33,-2.27,0.69,0.24
"ex4943",0.83,-0.21,1.08,0.42,0.69,2.37,1.33,1.71,4.46,3.74,4.39,5.68,2.96,4.40,2.03,3.05,0.48,2.65,0.79,1.28,-0.80,-0.95,1.30,0.78,-0.88,1.92,-1.77,-0.59,-1.70,-1.62,0.83,-1.12,2.14,0.27,-0.66
"ex4944",-0.05,0.05,0.92,-0.67,-0.52,-0.70,-0.24,-1.54,0.32,1.84,1.40,3.91,4.07,3.08,3.39,4.33,5.09,3.49,3.77,0.79,-1.26,0.25,-0.76,0.32,1.12,1.42,-0.77,0.66,0.45,-1.53,-0.82,1.02,-0.53,0.86,0.26
"ex4945",0.86,1.91,1.53,2.38,5.31,3.58,6.04,5.56,3.15,2.67,1.90,2.69,1.23,0.16,-0.49,1.31,0.74,-0.50,-0.38,2.33,-0.41,-0.17,-1.55,-0.92,-0.43,0.38,0.36,0.22,1.33,-0.50,-1.01,-0.73,0.40,-0.08,0.37
"ex4946",-0.87,3.21,1.88,0.73,1.14,-2.11,4.04,0.48,2.58,3.26,1.32,2.26,3.57,4.62,4.78,4.56,1.31,3.02,2.96,-0.26,-0.32,0.66,-1.41,-0.25,-1.74,-0.04,2.38,-0.53,1.69,0.97,1.10,-1.58,0.58,-1.42,2.32
"ex4947",-1.39,0.61,1.18,2.60,5.12,5.44,5.31,5.03,4.45,5.44,4.48,0.58,1.13,0.71,1.14,-1.49,0.22,0.06,0.96,-0.01,-0.24,-0.85,0.26,-0.91,0.99,-1.13,1.07,-0.06,0.34,0.04,-1.91,0.99,-1.30,0.42,-0.96
"ex4948",0.74,0.04,0.75,0.76,2.47,2.96,5.05,4.61,4.02,5.24,4.93,3.87,0.67,1.45,1.83,1.61,-1.66,-0.54,1.37,1.11,-0.17,-1.85,-0.02,-0.61,-0.14,-0.52,0.10,1.71,-0.55,-0.15,0.21,-0.91,0.45,0.97,-0.51
"ex4949",0.30,0.56,-0.87,0.01,-0.63,1.53,0.34,0.38,1.17,2.18,4.85,4.43,4.41,5.45,4.66,2.18,1.92,2.72,1.88,0.18,0.38,1.39,-0.31,-1.27,-0.64,-0.57,-0.74,0.91,-1.46,-1.29,0.92,1.80,-0.46,0.51,-0.94
"ex4950",0.41,-1.12,-1.88,-0.52,-0.77,2.56,3.13,3.61,3.02,4.06,5.14,5.33,2.54,4.08,2.02,1.16,-2.22,-1.31,1.37,-0.08,-0.77,0.46,-0.51,0.02,0.31,-0.38,0.19,-0.57,0.18,0.07,1.14,-0.20,-2.32,0.40,0.38
"ex4951",0.09,0.24,-0.59,2.31,4.09,3.73,3.52,2.75,6.59,4.06,4.49,3.57,2.75,3.61,0.34,1.77,-1.27,1.24,-0.05,1.71,-0.17,1.33,0.53,-0.60,-0.38,-1.62,0.26,-0.07,1.11,-0.62,0.24,-1.37,-0.72,-1.42,-0.03
"ex4952",1.13,-1.10,-0.19,-0.85,0.72,1.64,0.52,1.44,3.82,2.44,3.67,5.67,2.20,3.70,4.04,4.90,0.80,-0.28,-0.86,0.90,-0.77,-0.15,0.73,0.26,0.67,-0.30,-1.73,-1.77,1.34,-0.75,0.88,0.32,1.27,0.96,0.10
"ex4953",1.74,-0.69,2.88,2.97,5.01,2.86,4.92,4.11,3.11,1.29,1.84,0.90,-0.22,1.03,1.54,0.76,-0.33,0.19,0.91,1.33,-1.42,0.57,-0.79,-0.17,1.44,0.93,2.86,0.46,-0.48,-0.23,1.49,0.06,-0.03,0.56,-0.53
"ex4954",1.11,0.01,1.14,2.22,-0.10,2.82,3.09,5.27,2.78,4.91,5.21,2.75,4.38,1.98,1.41,-0.26,-0.26,-1.07,-0.52,-0.60,-0.45,3.10,-0.28,0.36,0.02,-0.60,-2.30,0.07,0.04,0.05,1.62,0.46,0.51,0.60,0.90
"ex4955",1.26,-2.57,1.71,0.01,0.60,1.58,2.97,2.86,3.62,4.68,4.63,2.77,2.90,1.30,3.47,-0.25,0.21,0.13,0.99,0.99,0.72,-0.01,0.73,-1.26,0.67,0.91,-0.02,-0.20,-0.63,-0.12,0.87,0.91,-0.35,-0.63,-1.72
"ex4956",-0.20,0.58,0.37,2.37,2.79,4.68,5.27,3.69,5.12,2.29,4.96,1.98,1.58,0.16,0.06,1.55,-0.12,1.77,0.07,0.26,0.56,-0.46,0.96,0.43,1.79,-0.20,0.08,-2.32,0.19,0.33,-1.00,1.09,0.96,-1.05,-0.04
"ex4957",-1.23,-0.68,2.23,2.87,4.42,4.18,4.61,4.40,3.74,1.54,0.89,3.02,0.62,0.78,3.04,-0.38,1.88,-0.48,-1.11,-0.25,-0.27,-0.30,-0.51,1.69,-0.26,-0.11,-1.35,0.86,1.80,-0.67,-0.07,-1.31,0.39,0.09,-0.61
"ex4958",0.01,-0.54,1.07,-1.20,0.62,-0.36,-0.28,-0.61,1.06,2.62,3.67,3.29,5.38,5.18,3.22,3.81,2.63,-0.06,0.49,1.59,0.60,-1.55,0.77,-1.44,-0.18,-1.20,0.08,-1.76,-1.15,-0.30,0.08,-0.68,0.45,0.64,0.25
"ex4959",2.48,1.28,0.03,0.22,-0.19,0.46,-0.22,-1.62,-0.64,0.17,1.85,3.24,4.62,5.64,4.24,4.27,5.89,2.20,0.77,1.65,-0.08,1.12,0.57,-0.87,-1.03,0.60,0.23,-0.15,1.64,1.62,-0.47,-0.12,0.06,1.05,0.05
"ex4960",-1.03,-1.68,0.43,-2.09,0.05,0.23,0.98,1.64,1.42,4.37,4.83,3.03,4.00,3.07,3.81,2.52,1.90,0.86,0.98,0.32,0.66,1.26,0.87,1.92,-0.38,1.29,0.42,1.10,1.46,0.20,-0.70,-1.60,-0.20,-0.41,-1.04
"ex4961",-0.13,-0.95,-1.59,0.18,0.65,0.83,2.60,4.47,3.00,5.52,3.78,6.05,4.02,2.91,2.69,0.91,0.15,-0.60,-0.38,-1.04,1.72,-0.90,0.62,1.40,1.03,0.21,-0.03,0.86,1.44,-0.37,0.73,-0.45,-0.23,-0.21,-0.85
"ex4962",-0.40,1.10,0.98,2.60,1.19,2.80,2.98,4.22,4.16,5.15,4.08,2.63,0.42,1.50,1.78,-0.25,0.92,2.44,0.31,-0.41,-1.58,1.55,-0.61,0.15,-0.86,1.84,-0.82,0.81,-0.41,-0.27,-0.21,-1.87,1.61,-0.33,1.45
"ex4963",0.69,-1.06,-0.08,0.24,0.93,0.93,-0.45,2.71,1.50,3.02,5.01,5.10,5.84,3.12,4.40,5.13,1.47,2.38,0.56,-0.21,-0.87,0.41,0.83,0.06,0.76,-0.54,0.88,0.33,0.33,-0.41,-1.14,1.14,1.10,0.53,-0.14
"ex4964",1.19,1.74,2.69,3.21,4.21,4.37,5.69,4.94,4.93,3.49,1.18,1.86,-0.59,-0.60,-0.17,-1.88,-0.84,-1.43,0.25,0.60,0.65,-1.32,-0.99,-0.00,-0.57,0.03,1.45,0.15,-0.84,0.59,-2.10,0.95,0.55,-0.86,-0.26
"ex4965",-0.13,1.60,0.34,0.87,-0.19,0.49,2.48,-0.23,1.17,4.75,5.68,3.94,2.12,3.85,2.47,3.30,4.52,1.10,-1.10,2.55,0.58,-1.22,1.47,-1.68,0.10,0.97,-1.98,-0.65,0.55,-0.92,-0.03,-0.41,-0.12,0.89,-1.97
"ex4966",-0.64,1.42,1.51,0.15,0.33,2.65,3.12,2.61,4.19,5.20,3.93,4.59,4.29,1.49,0.33,1.24,0.60,0.04,-0.49,1.95,0.11,-0.18,-2.89,-0.51,0.57,-1.12,1.69,0.60,0.50,0.17,0.59,-0.29,0.25,0.02,0.22
"ex4967",-0.85,2.34,0.12,-0.10,-0.03,1.54,5.61,4.57,3.20,4.71,3.35,3.33,0.05,1.74,0.77,0.98,0.52,-0.03,-0.28,1.11,-0.87,-0.79,0.29,0.14,1.49,-0.66,1.26,-1.70,0.27,1.59,0.19,-0.16,0.31,1.16,-0.90
"ex4968",0.09,1.79,0.89,3.45,3.43,2.07,5.05,3.87,3.92,2.53,3.24,0.57,1.42,-0.27,0.80,1.48,0.24,-0.79,0.76,-0.65,0.62,0.16,0.54,0.51,-0.80,-0.93,0.41,-1.97,-0.76,-0.21,0.81,-0.57,0.96,0.55,1.54
"ex4969",0.46,-0.12,0.82,1.00,2.85,4.70,4.96,4.83,4.04,3.05,3.88,4.09,1.84,0.70,0.24,-0.06,1.36,-0.70,-0.17,-0.43,-0.74,1.14,0.42,0.07,0.92,-1.62,-0.33,0.55,-0.21,1.18,0.37,0.59,0.18,-0.24,0.11
"ex4970",-0.78,0.90,-1.62,0.92,-0.44,0.74,0.48,4.42,2.47,3.16,5.53,4.24,5.42,4.38,3.76,1.87,1.87,0.11,1.95,1.36,-2.57,-1.75,-0.11,2.43,2.78,-1.10,0.08,0.70,-0.51,0.30,1.51,-1.07,0.90,-0.62,-0.82
"ex4971",-0.16,1.09,1.67,1.02,2.98,1.18,3.37,4.63,4.70,4.63,4.78,4.63,3.09,3.45,1.01,-0.34,-0.28,0.28,-2.28,-1.13,-0.50,0.25,-1.24,-0.79,-2.08,0.15,-0.13,0.58,0.78,0.78,-0.40,1.83,-1.12,0.44,1.68
"ex4972",-1.16,0.26,0.43,-1.64,0.54,1.03,-0.62,1.85,2.43,3.28,1.26,3.38,4.01,3.83,4.17,4.31,1.22,1.49,1.22,0.86,-0.43,0.49,0.22,-0.06,0.48,-2.09,-1.69,-1.01,-0.20,0.68,-0.82,2.08,-2.02,-1.25,-0.48
"ex4973",0.81,-0.31,3.05,2.71,4.48,4.43,3.64,3.55,1.97,1.94,2.01,1.19,0.38,0.93,2.14,0.28,-1.68,1.26,0.78,0.59,0.32,1.25,-1.62,-1.96,-1.04,-0.52,-1.65,0.44,0.66,-0.37,0.25,0.08,0.36,-1.34,-0.29
"ex4974",-0.61,-1.27,0.93,-0.00,1.34,-0.62,0.64,0.55,1.89,3.35,4.58,2.19,5.12,4.87,3.70,2.83,3.30,1.01,3.04,-0.47,1.06,-2.50,-0.11,0.76,-1.09,0.58,0.11,0.73,1.27,2.59,1.10,0.26,1.14,1.93,-0.66
"ex4975",0.46,0.24,1.80,0.64,2.06,3.27,4.43,3.71,4.96,3.71,3.41,2.78,1.15,1.09,0.80,0.48,0.49,0.75,0.73,0.01,2.03,0.27,0.17,1.24,0.08,-0.29,1.31,0.38,0.38,0.27,-0.07,0.68,0.89,0.23,0.86
"ex4976",0.66,0.57,0.18,0.44,1.34,1.31,0.37,2.79,3.46,5.32,6.22,4.41,4.11,4.09,1.74,0.38,0.07,0.35,-0.72,-0.33,0.68,0.12,-0.49,-0.74,-0.39,-0.26,-1.24,0.92,0.84,0.05,-0.66,1.72,0.26,0.92,1.44
"ex4977",0.12,1.81,2.33,2.01,3.74,4.68,3.95,6.02,4.59,4.01,1.05,1.34,1.21,2.97,-1.80,-0.06,-0.93,-0.44,1.10,0.01,0.36,-0.47,0.13,0.42,-1.54,1.11,-0.21,0.32,2.10,-0.82,-1.65,-0.53,0.33,2.32,-1.81
"ex4978",0.19,-0.15,-0.03,-1.57,0.25,0.10,1.36,0.76,1.30,2.01,3.03,4.29,3.20,4.70,4.98,3.80,3.15,2.30,2.36,1.90,-1.25,-0.60,-0.93,-0.60,-0.45,1.02,-0.16,0.28,0.78,1.06,0.46,0.08,-1.08,-0.94,-1.71
"ex4979",-0.76,0.25,0.81,-1.06,0.45,1.82,3.60,2.92,3.79,4.72,2.79,2.73,2.59,2.94,2.16,1.04,-2.49,0.75,-1.42,-0.17,-0.72,0.62,0.31,-0.12,-1.51,-1.16,0.12,0.86,-0.56,1.16,-0.47,0.14,-0.87,-0.34,0.37
"ex4980",0.27,1.77,2.77,2.38,2.64,4.48,4.89,5.01,3.81,3.80,1.81,1.85,-0.07,1.35,-1.25,0.23,0.78,-0.52,-0.65,-1.09,0.82,1.70,0.58,0.88,1.60,1.18,0.57,1.06,1.99,-0.67,-0.62,0.56,2.28,0.03,3.30
"ex4981",0.81,1.32,-0.57,-0.51,0.63,1.13,1.44,0.08,3.29,5.72,5.04,4.98,4.56,3.27,3.78,1.17,0.43,-0.39,0.98,-0.59,0.27,-2.14,1.83,-1.80,-0.85,-0.70,0.47,-1.93,-2.38,0.70,-1.75,-2.38,0.28,-0.16,0.88
"ex4982",-0.31,0.66,-0.72,-0.68,0.36,2.41,0.11,0.45,3.36,1.89,6.12,4.91,1.25,3.27,3.30,1.66,1.50,0.35,0.63,-1.17,-0.38,0.05,-1.13,0.19,1.02,0.51,0.00,-1.29,1.10,-1.41,1.16,-0.96,-1.36,0.35,0.63
"ex4983",-0.09,-0.49,-0.63,-1.17,0.46,1.80,3.60,3.34,4.21,3.86,3.77,2.55,2.29,3.68,0.33,1.14,1.02,0.36,-0.85,-0.44,0.53,-0.82,-0.69,-0.77,-0.53,-0.30,0.01,-1.17,-0.30,0.78,0.29,0.27,1.16,1.55,-0.81
"ex4984",2.58,-0.75,-1.64,0.03,0.50,2.67,3.02,1.90,1.84,3.56,0.61,3.54,1.82,2.43,3.04,2.17,1.50,1.60,0.97,0.19,1.06,-0.15,2.41,0.09,-0.52,-0.65,0.21,-1.56,-1.03,-0.91,1.46,-0.77,0.51,-1.59,0.31
"ex4985",-0.09,-1.11,1.96,0.58,1.45,3.25,2.20,5.79,3.37,1.09,2.75,1.59,1.47,2.46,-0.48,0.98,1.22,2.32,2.11,-0.55,-0.15,0.16,-0.15,-0.80,-0.57,-1.03,1.21,-0.54,-0.52,-1.60,1.76,-1.11,0.64,2.40,1.16
"ex4986",-2.23,-0.62,-0.60,1.86,2.54,2.67,1.92,0.74,0.09,1.58,1.57,3.16,3.75,1.80,1.51,2.23,4.31,1.06,-0.28,1.39,0.81,-1.17,-0.96,-0.70,-1.40,0.44,1.14,-1.99,0.37,-0.63,-0.49,-0.77,-0.62,-0.39,-0.44
"ex4987",1.23,2.65,-0.63,1.25,-1.09,-0.14,-0.48,0.30,0.93,1.90,2.63,3.42,2.95,3.71,5.38,2.95,3.93,2.60,0.80,0.97,0.24,1.83,0.69,-3.43,-2.33,2.35,0.66,0.01,-0.83,-0.76,-0.23,0.25,0.19,-0.05,-1.34
"ex4988",-0.52,0.88,1.07,0.61,-1.37,1.05,0.64,2.05,1.54,0.44,3.73,2.08,5.23,2.78,4.91,2.12,3.14,1.56,3.40,1.08,1.49,-0.68,0.41,-0.82,-0.40,0.11,-0.63,-0.81,-1.17,-0.63,-0.67,1.42,-0.45,0.11,0.56
"ex4989",0.26,-1.06,3.12,-1.12,-0.47,0.15,-0.69,2.29,1.22,3.34,5.29,2.29,3.35,5.30,4.40,3.52,4.62,1.70,-0.32,1.62,0.42,-0.62,-0.08,0.60,-1.04,0.09,1.46,0.92,1.49,1.08,0.11,0.25,-0.61,-0.19,-0.69
"ex4990",1.40,-1.59,1.62,-0.37,0.56,2.42,0.16,2.61,3.71,3.40,3.83,5.68,2.56,3.77,2.70,3.67,3.15,0.20,0.78,2.42,-0.79,-0.88,-0.01,-0.55,0.00,-0.30,0.07,-1.07,-0.79,0.61,-0.93,1.08,-0.43,0.02,0.44
"ex4991",-1.37,-0.49,-1.78,0.47,-0.11,-0.11,2.31,-0.42,0.02,1.06,2.48,4.84,4.08,5.82,5.56,4.41,4.00,1.89,0.77,1.02,0.62,0.46,0.90,-1.56,-1.48,2.71,-1.37,0.94,0.31,0.93,-1.23,0.53,-1.35,-0.34,0.58
"ex4992",-3.20,-0.36,-0.83,-0.07,-0.34,1.34,1.27,2.55,2.65,4.36,5.43,3.72,3.97,4.34,1.52,3.77,0.38,-0.11,0.55,-0.24,0.28,-0.39,0.25,-1.45,-1.32,1.70,-0.98,-1.75,-0.59,-0.91,0.27,0.60,0.20,-0.54,-1.75
"ex4993",-0.43,0.14,-0.40,-0.13,2.32,1.48,2.69,5.67,4.45,4.15,4.74,2.81,3.18,2.56,2.45,0.39,1.09,-2.28,-0.01,-0.00,-0.31,-1.07,1.16,0.20,0.55,0.11,0.11,1.79,0.16,0.39,1.10,0.89,0.13,0.61,0.73
"ex4994",0.31,2.97,0.03,0.30,-0.85,-1.32,-0.72,0.33,1.17,0.62,1.64,1.78,3.79,5.85,4.54,4.07,3.57,1.21,1.52,1.20,-3.08,0.12,0.41,-0.76,0.44,0.44,-0.55,-0.92,-0.63,0.02,-2.37,0.62,-1.80,0.10,-0.12
"ex4995",0.59,1.24,-1.26,-0.51,1.25,2.00,0.85,2.88,3.37,3.95,5.16,3.23,4.93,3.16,2.06,2.98,2.78,2.70,1.08,0.30,0.04,0.57,-0.17,-1.10,-0.14,0.43,-0.91,1.48,-1.32,1.43,-0.09,0.14,-0.49,-0.83,-0.33
"ex4996",0.44,0.56,1.84,1.94,3.43,4.88,4.04,2.11,1.83,0.78,1.38,0.70,0.63,1.34,0.25,3.12,3.03,1.34,1.34,1.85,-1.53,-0.21,-2.04,1.14,0.41,1.62,0.05,-0.62,0.26,-0.45,0.52,-2.56,-0.68,0.97,-0.78
"ex4997",1.18,-0.48,1.81,1.51,1.41,3.61,3.75,3.80,3.44,3.71,3.86,2.16,0.81,1.55,1.13,0.52,0.01,0.42,-0.26,-0.17,-0.55,1.48,1.03,-0.70,1.91,0.15,-0.50,-1.68,-0.12,0.35,-0.41,0.37,-1.96,-1.19,-1.08
"ex4998",0.64,0.81,-0.38,-0.88,1.55,0.10,0.42,-0.93,-0.70,1.54,1.48,1.96,3.57,4.38,6.08,3.78,5.28,1.91,1.55,1.29,-1.13,0.66,0.11,-3.59,-0.67,0.23,0.93,0.94,-1.47,-0.36,0.49,1.61,-0.81,-1.35,-0.84
"ex4999",0.18,1.65,1.91,2.07,4.28,3.61,4.46,4.62,4.80,0.25,1.06,1.89,1.11,0.92,-0.59,0.20,0.97,1.48,0.14,0.80,1.60,-0.91,1.66,-0.17,-0.89,-0.04,0.09,0.33,0.45,0.20,0.17,-0.65,-0.73,0.89,-0.97
"ex5000",2.05,-1.99,1.66,2.18,2.22,2.53,3.09,2.20,1.42,0.62,1.36,3.18,3.54,2.15,2.07,2.16,3.05,2.76,0.03,1.72,-1.48,1.11,-0.03,0.84,-0.66,-0.91,-0.20,0.17,0.45,0.89,0.21,0.28,-0.77,1.39,0.51
