@relation W2

@attribute id string
@attribute x36 numeric
@attribute x37 numeric
@attribute x38 numeric
@attribute x39 numeric
@attribute x40 numeric
@attribute class {0,1,2}

@data
"ex1",-0.13,-0.87,0.56,-0.53,0.29,2
"ex2",0.71,0.04,0.91,-0.79,0.22,0
"ex3",2.17,0.18,-0.09,-1.33,1.00,1
"ex4",-0.75,1.11,1.35,-1.63,0.10,0
"ex5",1.48,-0.02,-0.58,0.93,0.40,1
"ex6",-1.04,0.43,-1.82,-1.14,-0.23,1
"ex7",0.44,0.31,-0.45,-0.23,0.27,0
"ex8",-1.96,1.26,-0.72,2.01,0.95,2
"ex9",-0.27,1.90,1.14,-0.05,0.04,0
"ex10",-0.41,-0.48,-0.37,0.80,1.30,2
"ex11",-0.05,0.76,0.44,-0.70,1.08,1
"ex12",1.74,-0.37,-0.25,-0.63,0.20,2
"ex13",1.12,-0.32,-0.43,-0.34,-1.04,2
"ex14",-0.02,2.14,1.49,0.02,-2.16,2
"ex15",-0.16,-1.42,0.53,1.07,-0.55,2
"ex16",0.43,0.18,-0.20,1.25,1.88,2
"ex17",-0.33,-1.66,-0.73,1.45,2.11,2
"ex18",0.59,0.80,0.35,1.58,-0.98,2
"ex19",0.09,-0.96,-0.38,1.13,-1.53,1
"ex20",0.70,-0.12,-1.96,-0.86,0.40,0
"ex21",1.12,1.46,1.05,1.62,1.33,2
"ex22",-1.13,-0.16,-1.52,-1.35,-0.74,0
"ex23",0.62,-0.57,-0.64,-0.69,0.83,0
"ex24",0.87,0.03,0.42,0.97,0.69,2
"ex25",-0.50,0.11,-0.83,0.15,-0.55,1
"ex26",0.75,-0.72,0.05,-0.56,0.18,1
"ex27",1.73,-0.68,0.83,-0.59,0.24,2
"ex28",-0.35,1.00,0.01,0.93,1.08,0
"ex29",0.27,-1.94,-2.53,-0.71,1.71,0
"ex30",0.47,-1.36,-1.86,-0.77,-2.22,0
"ex31",-1.23,-0.03,-1.78,0.30,-2.08,2
"ex32",1.55,-1.06,-0.16,0.06,-2.01,1
"ex33",0.35,-1.36,0.53,0.84,-0.81,2
"ex34",1.06,-0.06,-0.39,1.44,1.01,0
"ex35",-1.65,-2.27,0.80,-0.66,-1.26,2
"ex36",-2.14,0.54,-1.52,0.35,0.74,0
"ex37",-0.65,-1.73,-0.13,-0.23,0.89,1
"ex38",-0.64,-0.02,1.49,0.73,0.93,0
"ex39",0.30,-0.17,0.17,0.05,-0.38,1
"ex40",-1.67,-0.23,0.57,-0.84,-1.27,0
"ex41",-0.57,0.83,-1.11,0.17,-2.36,1
"ex42",0.97,0.90,1.90,-0.08,-0.91,0
"ex43",0.29,1.72,0.30,-1.30,0.62,2
"ex44",-0.12,0.62,-0.17,0.28,-0.06,2
"ex45",0.01,1.03,-0.39,-1.15,0.00,1
"ex46",-0.04,0.58,-0.34,-1.39,0.30,0
"ex47",0.88,-0.32,1.24,-3.51,0.50,2
"ex48",0.32,0.66,1.95,0.24,0.95,1
"ex49",0.46,-0.54,-0.22,-0.59,-0.09,1
"ex50",-1.41,-1.49,0.65,-2.10,-0.53,1
"ex51",1.63,-1.39,-1.48,0.25,-1.11,2
"ex52",1.40,-1.24,0.94,-0.73,0.15,0
"ex53",0.06,0.91,-0.35,0.15,0.11,0
"ex54",-0.09,-0.46,-0.16,-2.00,1.08,0
"ex55",0.64,-1.56,0.11,0.25,-0.16,1
"ex56",0.42,-1.40,-0.88,1.56,0.10,2
"ex57",0.65,0.54,1.70,1.06,1.02,1
"ex58",-0.12,0.10,0.02,-0.89,-0.24,1
"ex59",1.09,1.20,-0.17,-1.58,-0.13,1
"ex60",-1.03,0.04,2.02,-0.04,-1.26,1
"ex61",2.43,0.94,0.41,-0.29,1.71,1
"ex62",0.92,-0.34,0.63,1.63,0.01,2
"ex63",1.77,0.62,0.16,-0.34,-0.04,1
"ex64",0.38,1.07,0.96,1.87,-1.53,0
"ex65",1.33,0.39,0.44,0.58,1.43,2
"ex66",-0.47,-1.71,0.30,-1.39,-0.83,0
"ex67",0.40,-0.34,-0.02,-0.63,-0.45,1
"ex68",-0.28,-1.07,-1.23,1.02,0.50,0
"ex69",-1.36,-0.69,1.26,0.74,-0.62,0
"ex70",0.43,-0.23,-0.33,0.57,-2.24,1
"ex71",0.07,-1.07,-0.04,1.00,-0.75,1
"ex72",0.19,-2.45,1.18,1.35,0.64,1
"ex73",-1.27,-0.64,1.86,0.81,1.89,2
"ex74",0.11,1.23,1.43,-0.49,1.34,0
"ex75",-1.13,-2.07,0.09,0.05,1.35,1
"ex76",-0.32,0.45,1.58,-0.52,-0.23,2
"ex77",-0.03,1.61,-0.72,-0.30,-0.02,0
"ex78",0.29,0.03,1.51,0.47,-0.41,1
"ex79",2.22,0.10,-0.39,-1.46,0.17,0
"ex80",1.48,1.84,0.87,0.01,-0.27,1
"ex81",0.68,-1.04,0.72,-0.03,0.70,2
"ex82",-0.01,1.23,0.75,2.02,-0.74,1
"ex83",0.23,1.02,-0.38,0.29,1.04,1
"ex84",-0.39,-0.53,0.54,-0.42,1.00,0
"ex85",-0.33,-0.51,-0.41,-0.27,-1.00,2
"ex86",0.78,-0.72,0.08,0.53,1.68,0
"ex87",-0.26,0.44,0.50,0.26,1.25,1
"ex88",0.55,0.44,0.23,1.93,-0.33,0
"ex89",0.79,-0.14,-0.08,0.61,0.14,2
"ex90",-1.80,-0.38,-2.11,0.51,-0.33,2
"ex91",0.98,-0.41,-0.75,1.00,-0.54,1
"ex92",-1.64,0.51,-1.16,1.46,-1.47,1
"ex93",-0.22,-0.88,-0.32,-0.07,-0.57,1
"ex94",0.79,0.36,0.71,-1.09,0.86,1
"ex95",-0.50,0.78,0.12,-0.05,-1.22,0
"ex96",-0.27,0.15,0.52,-1.59,-0.01,1
"ex97",0.33,0.72,2.54,1.53,-1.09,2
"ex98",0.08,-1.33,-2.55,0.16,-1.70,1
"ex99",-0.94,0.02,1.63,-2.95,1.19,0
"ex100",0.58,-1.62,-0.21,0.15,0.47,2
"ex101",0.81,2.04,2.56,0.80,-0.28,1
"ex102",0.64,-0.56,0.58,1.01,-0.38,0
"ex103",0.75,0.32,-0.12,-0.69,0.28,0
"ex104",2.09,0.15,-1.23,2.15,-1.23,1
"ex105",-0.79,-0.71,0.68,-1.88,0.76,2
"ex106",1.02,-0.22,0.22,-0.86,-0.10,2
"ex107",-0.24,0.99,0.85,-0.29,0.73,2
"ex108",-1.29,-1.58,-0.48,-0.78,0.69,2
"ex109",-0.88,0.11,-0.34,-2.23,-0.00,0
"ex110",-0.65,-0.71,-2.35,-0.92,0.15,0
"ex111",-0.40,-0.14,-0.12,1.61,-0.55,2
"ex112",1.75,-1.20,-0.53,-0.03,-1.73,1
"ex113",1.84,-0.03,0.40,-0.18,-0.71,0
"ex114",-0.40,-1.12,-1.23,0.52,-0.46,1
"ex115",0.96,-0.43,0.19,0.81,0.23,2
"ex116",-0.19,1.25,-1.75,-0.31,1.16,2
"ex117",0.76,-0.65,-1.01,-0.48,-1.11,2
"ex118",-0.11,-1.64,0.61,-3.30,1.20,1
"ex119",-1.43,2.42,-1.45,-1.14,0.12,1
"ex120",-0.47,-1.01,-0.71,0.86,0.33,1
"ex121",0.89,0.34,-1.18,-1.61,0.84,1
"ex122",1.27,0.14,-0.19,0.46,1.03,1
"ex123",-0.65,-0.01,0.15,0.02,0.01,0
"ex124",-0.15,-0.68,-0.48,-1.89,-1.11,2
"ex125",-0.71,2.36,0.05,-0.34,-0.49,2
"ex126",1.65,0.80,-0.05,0.43,-0.57,2
"ex127",0.05,0.03,-0.36,0.96,-0.59,2
"ex128",0.13,-1.17,-0.23,0.42,0.53,0
"ex129",-0.91,-0.53,-1.65,-0.46,-0.75,1
"ex130",1.10,-0.02,1.20,-0.70,0.64,2
"ex131",2.15,-0.49,0.09,-0.42,-1.04,2
"ex132",-0.29,-0.50,-0.34,0.39,-1.25,2
"ex133",0.67,-1.18,-1.17,-0.43,0.15,2
"ex134",1.06,-2.43,-0.36,-1.87,-0.77,0
"ex135",0.62,0.69,1.03,0.27,1.16,1
"ex136",0.37,1.59,0.76,-0.54,0.24,2
"ex137",-2.88,0.28,1.09,-1.00,0.83,0
"ex138",-1.22,-0.64,-0.43,2.86,-0.81,1
"ex139",0.90,-0.55,0.81,0.18,0.46,0
"ex140",2.92,0.69,1.42,-0.75,1.18,2
"ex141",2.14,0.04,-1.17,1.24,1.26,1
"ex142",0.80,0.75,1.84,-0.12,0.38,0
"ex143",-0.65,1.85,0.18,-0.00,-0.70,0
"ex144",-1.35,-1.54,0.92,-0.17,-1.06,2
"ex145",0.52,-0.90,-0.08,2.03,-0.58,2
"ex146",-2.50,0.42,-1.14,-1.61,1.77,0
"ex147",-1.62,-0.19,-1.19,-2.62,0.61,1
"ex148",0.05,0.76,-0.84,-0.72,-1.76,0
"ex149",-1.15,0.13,-0.89,-0.82,1.00,0
"ex150",1.08,0.37,-0.24,0.82,-1.87,0
"ex151",-1.01,1.28,-1.47,-1.66,0.74,0
"ex152",1.15,-0.23,0.04,-0.50,0.48,2
"ex153",-0.83,-1.04,-0.58,0.54,1.60,0
"ex154",-0.22,-2.17,-1.23,-2.15,-0.80,2
"ex155",-0.00,-0.79,0.84,1.49,-0.11,2
"ex156",0.51,-1.56,1.48,0.43,0.43,1
"ex157",1.02,-1.27,-0.07,1.62,-0.20,1
"ex158",0.50,0.46,-0.62,-0.24,-0.45,2
"ex159",2.02,0.83,-0.30,-0.52,-0.37,2
"ex160",-0.02,-0.20,-0.43,0.41,-1.68,1
"ex161",1.54,-1.13,-0.81,0.69,0.16,1
"ex162",0.51,-1.15,0.34,2.44,0.42,0
"ex163",-0.10,0.41,0.31,-1.04,0.01,1
"ex164",0.70,0.79,-0.43,2.52,-0.39,1
"ex165",-0.44,0.10,0.38,-0.56,-1.03,1
"ex166",-0.27,-0.15,0.42,-1.04,2.28,1
"ex167",0.76,-0.23,-1.73,0.86,-0.26,2
"ex168",1.52,-1.81,-0.66,0.56,0.17,1
"ex169",0.98,-0.70,0.44,-1.64,-0.22,2
"ex170",0.58,-0.51,0.11,0.23,0.07,0
"ex171",0.62,-0.67,1.16,1.65,-2.18,0
"ex172",-0.13,0.37,-1.09,-0.82,-0.97,1
"ex173",-0.68,0.63,1.13,1.25,-1.59,1
"ex174",0.20,2.31,-0.91,-0.31,2.12,2
"ex175",-1.27,2.09,-1.35,0.26,0.81,0
"ex176",0.49,0.48,0.67,-0.83,-1.42,2
"ex177",-0.46,-1.20,0.18,-2.28,-0.65,0
"ex178",1.04,-0.35,-0.85,1.40,0.04,2
"ex179",0.32,2.42,-0.39,-1.12,0.36,0
"ex180",-2.23,0.91,0.16,0.79,0.54,2
"ex181",0.79,-1.50,0.86,1.54,0.41,1
"ex182",-0.33,1.21,1.48,1.71,0.72,0
"ex183",-2.31,-0.62,-1.58,-0.70,1.51,2
"ex184",0.66,-0.51,0.81,-0.35,1.37,2
"ex185",-0.45,1.13,-0.45,0.14,-0.33,2
"ex186",1.70,0.29,-0.15,0.21,0.97,2
"ex187",1.53,-0.30,-0.45,2.21,0.06,0
"ex188",-0.89,2.71,-0.41,0.55,-1.66,2
"ex189",0.28,-0.25,0.28,-1.34,2.01,0
"ex190",-0.30,-0.88,0.01,-0.72,-0.54,0
"ex191",-1.62,0.02,2.19,0.71,0.59,1
"ex192",0.25,-0.43,1.06,1.44,1.35,0
"ex193",-0.60,-1.13,1.04,-1.24,0.07,2
"ex194",-0.26,1.09,0.31,0.50,-0.87,1
"ex195",1.93,-0.21,0.23,-0.49,-0.48,0
"ex196",-0.80,-0.35,0.50,-0.09,0.77,0
"ex197",1.35,-1.20,1.68,0.05,0.09,1
"ex198",0.59,-0.09,-2.61,-1.44,-1.83,0
"ex199",-0.58,-0.10,-0.22,0.56,0.13,2
"ex200",-0.73,0.55,1.41,-1.17,-0.25,1
"ex201",-1.32,-2.12,0.13,0.21,2.54,1
"ex202",-1.73,-0.19,0.23,1.04,0.84,0
"ex203",0.09,0.23,-0.16,-0.26,-1.01,1
"ex204",0.94,0.25,-0.42,-1.84,2.19,0
"ex205",-0.36,-1.39,2.41,1.25,-0.37,0
"ex206",-2.27,0.72,-1.87,0.96,1.52,1
"ex207",-0.67,-0.35,-0.32,-1.09,-0.47,0
"ex208",-1.08,1.07,-0.11,0.47,-0.78,0
"ex209",-0.80,-1.01,-0.40,-0.25,0.12,2
"ex210",-0.66,-1.25,0.52,-0.96,-0.35,1
"ex211",1.44,1.34,0.38,-1.69,0.52,0
"ex212",-0.60,1.26,0.02,1.26,-0.68,2
"ex213",-1.12,0.45,-0.28,-0.28,1.73,0
"ex214",-0.35,0.40,0.47,-0.35,-0.09,2
"ex215",-2.20,1.86,-0.24,0.20,-0.20,2
"ex216",-0.49,0.59,-0.15,1.01,0.51,0
"ex217",0.15,0.43,0.35,-0.04,-0.12,1
"ex218",1.29,-0.77,0.82,-0.66,-1.32,0
"ex219",1.61,1.11,0.03,0.12,-1.38,2
"ex220",-0.54,1.53,1.43,-1.79,0.39,2
"ex221",1.34,0.71,-0.50,0.44,-0.35,1
"ex222",-0.26,-0.85,0.15,-1.92,0.19,0
"ex223",-1.17,0.06,0.12,-1.35,0.68,2
"ex224",-0.72,0.63,-0.40,-0.43,0.44,1
"ex225",0.16,-0.93,-0.40,-0.66,-0.03,2
"ex226",-0.40,0.20,-0.75,-0.80,0.53,2
"ex227",1.30,-0.10,0.89,0.51,1.76,1
"ex228",-1.15,1.33,0.89,1.53,0.77,1
"ex229",1.12,0.59,-0.23,1.31,-1.32,0
"ex230",-0.77,1.64,0.71,0.47,0.61,0
"ex231",0.32,0.78,-0.43,-0.83,0.56,1
"ex232",1.33,0.98,-1.04,-0.28,-0.07,1
"ex233",-1.04,0.86,1.19,0.32,1.40,2
"ex234",-0.11,-0.03,1.02,0.39,-0.28,1
"ex235",0.24,-0.88,1.01,0.81,-0.06,1
"ex236",0.02,-0.01,1.26,0.20,0.57,2
"ex237",0.49,-0.18,1.07,0.74,-0.95,2
"ex238",-0.11,1.92,1.21,0.48,1.20,1
"ex239",-1.39,2.15,0.85,1.95,-0.86,1
"ex240",0.89,-0.11,-0.46,0.65,1.54,2
"ex241",0.66,-0.92,-1.01,-1.97,0.05,1
"ex242",0.24,0.72,-2.75,0.47,1.16,0
"ex243",-0.45,-1.62,-0.29,0.31,-0.59,1
"ex244",0.47,1.19,-0.25,-0.13,-1.71,2
"ex245",0.11,-0.68,-0.48,-0.18,-1.20,1
"ex246",-0.80,0.95,-1.80,1.23,0.00,2
"ex247",0.10,1.18,-0.02,1.58,0.25,1
"ex248",1.58,0.08,1.00,0.31,-0.25,1
"ex249",-0.58,-0.21,0.21,-0.34,0.16,1
"ex250",0.32,0.57,0.12,1.30,-0.35,2
"ex251",1.29,0.12,0.62,-0.03,0.02,1
"ex252",-0.28,0.70,-1.61,0.06,1.03,2
"ex253",-1.20,-1.55,1.54,0.14,1.65,1
"ex254",-1.22,0.19,0.88,0.41,0.09,1
"ex255",0.14,0.59,-0.15,-1.02,0.91,2
"ex256",0.80,0.00,-0.92,0.71,0.51,1
"ex257",-0.91,-1.06,-1.46,-1.46,0.92,2
"ex258",1.39,-1.04,0.93,-0.17,0.16,2
"ex259",0.31,0.44,0.42,-0.90,0.90,0
"ex260",1.13,-0.52,-1.44,-0.56,0.57,1
"ex261",0.20,-0.72,-0.27,-0.46,-0.85,1
"ex262",-0.63,0.76,-0.51,1.02,-0.12,2
"ex263",-0.91,-0.67,-0.92,-1.01,-0.66,1
"ex264",-0.42,-0.54,-0.49,-0.26,-1.01,0
"ex265",-0.32,-0.04,-1.78,-1.54,0.16,1
"ex266",-0.43,-0.30,0.49,1.12,0.47,2
"ex267",-0.55,1.41,-0.07,-3.22,-0.38,2
"ex268",1.10,-0.82,-0.88,0.59,0.60,1
"ex269",0.28,0.38,1.02,-0.27,1.15,2
"ex270",-0.57,-0.03,-1.15,0.88,-0.83,1
"ex271",1.85,0.59,0.68,2.30,0.83,2
"ex272",-1.38,-0.37,0.58,-0.66,0.29,1
"ex273",-0.55,-1.55,-0.28,0.69,0.15,1
"ex274",-0.70,-0.78,-0.03,-0.45,-0.17,1
"ex275",-0.82,-0.53,1.58,0.63,0.69,1
"ex276",0.28,0.39,0.32,-0.48,-0.08,1
"ex277",-0.27,0.43,1.67,1.55,0.02,0
"ex278",-0.54,-0.59,-0.34,-0.23,-0.67,2
"ex279",1.86,1.17,0.50,-0.84,1.03,0
"ex280",-2.13,0.28,-0.34,0.18,-0.24,2
"ex281",1.08,2.57,0.10,-1.45,-1.39,1
"ex282",0.01,1.89,-1.47,-0.23,-2.07,0
"ex283",-0.92,-0.53,-0.35,0.49,-0.94,1
"ex284",1.04,-0.44,-1.25,-1.72,-2.05,2
"ex285",0.26,-0.95,1.16,0.34,-1.20,2
"ex286",1.29,-0.85,0.33,-2.85,0.14,2
"ex287",0.63,1.90,-1.78,0.98,-0.52,0
"ex288",0.32,0.01,0.62,-1.40,-0.34,2
"ex289",0.01,1.34,-0.24,-0.16,1.31,1
"ex290",-0.04,-0.12,0.80,-0.76,-1.02,0
"ex291",0.02,1.39,0.05,0.37,-0.65,0
"ex292",0.93,-0.20,1.05,-0.28,1.87,2
"ex293",-0.22,0.07,-0.58,0.36,-0.77,1
"ex294",-0.76,0.90,-2.17,-0.14,0.19,0
"ex295",-0.46,0.66,-0.45,-0.15,0.13,0
"ex296",1.28,1.78,0.81,-2.23,0.94,1
"ex297",-1.03,1.48,-0.28,0.71,-0.53,2
"ex298",-1.61,1.88,-0.02,-0.31,-1.68,1
"ex299",2.42,0.41,0.52,1.31,-1.03,1
"ex300",-0.61,0.28,0.24,-0.42,-0.26,0
"ex301",0.01,0.29,-0.44,0.35,1.01,0
"ex302",1.17,-0.89,-1.17,-1.34,-0.62,0
"ex303",-0.57,-0.12,0.24,-1.58,0.00,1
"ex304",-0.44,-0.18,-2.06,-1.28,0.31,2
"ex305",-0.73,0.46,-0.22,-0.08,-1.85,1
"ex306",0.19,-0.42,0.07,2.09,-0.24,2
"ex307",1.55,0.04,0.50,-0.63,0.01,2
"ex308",-0.17,-1.38,0.13,-0.33,1.25,1
"ex309",-1.58,0.85,0.47,0.81,0.02,1
"ex310",2.05,1.16,-1.66,0.85,-1.33,2
"ex311",0.44,0.99,-0.31,-0.73,0.10,1
"ex312",1.33,0.97,-0.28,0.19,-1.36,2
"ex313",0.45,-0.60,1.20,-0.05,-0.31,2
"ex314",1.33,1.09,0.66,0.36,-0.16,0
"ex315",-1.03,2.40,0.77,-2.16,-0.11,0
"ex316",-1.65,0.07,-0.12,-0.07,0.09,2
"ex317",0.66,1.83,-0.00,0.73,-0.73,2
"ex318",-1.07,1.57,-0.26,1.51,-2.43,1
"ex319",-1.84,-1.03,0.58,-2.34,0.17,0
"ex320",-1.16,0.30,-0.31,-0.96,-1.61,0
"ex321",1.30,-0.40,0.57,-0.78,-1.22,0
"ex322",-0.19,-0.37,-0.01,-0.10,1.04,0
"ex323",1.48,-1.41,0.68,1.70,0.41,1
"ex324",-0.36,-1.12,0.05,-1.18,1.36,0
"ex325",0.67,-0.06,-0.13,0.65,0.10,0
"ex326",-0.05,1.59,-0.63,-0.40,-0.06,0
"ex327",-0.18,-1.09,-1.04,1.52,2.11,0
"ex328",1.80,0.55,1.72,-1.19,1.08,0
"ex329",1.03,-2.19,-0.47,0.25,0.00,2
"ex330",2.32,-1.11,0.33,-1.61,1.07,1
"ex331",-1.41,-0.58,1.27,-0.31,-0.65,1
"ex332",-1.25,0.19,-0.05,-0.53,-1.25,1
"ex333",0.65,-0.81,0.48,-0.30,-0.12,0
"ex334",0.28,1.60,-0.67,-0.27,-0.12,2
"ex335",-0.24,-1.65,0.55,-1.61,0.46,0
"ex336",1.43,0.13,0.26,-1.04,-0.43,2
"ex337",1.54,1.29,0.27,-1.74,-0.48,2
"ex338",1.82,2.95,-0.01,0.06,-0.96,1
"ex339",1.28,0.22,-2.71,-1.42,1.28,0
"ex340",0.07,-1.66,0.14,-0.02,0.52,2
"ex341",1.33,0.08,1.15,1.07,-0.03,1
"ex342",0.38,0.01,-0.11,1.53,-0.27,1
"ex343",-2.05,0.34,1.48,1.34,-1.63,1
"ex344",2.36,-1.43,-0.55,-0.00,0.90,2
"ex345",-1.29,-1.11,2.37,-0.08,0.96,0
"ex346",-0.78,-0.63,1.58,-0.06,2.22,0
"ex347",-0.86,0.02,-0.37,-0.38,0.61,2
"ex348",-0.35,-0.73,-0.07,0.48,0.76,0
"ex349",1.42,-0.45,-0.92,1.00,0.45,0
"ex350",-0.82,0.47,-0.05,-0.44,-0.62,2
"ex351",0.93,-1.11,1.07,0.12,-3.53,1
"ex352",0.40,0.58,-0.02,1.28,-1.10,2
"ex353",0.70,-0.44,-0.30,-0.53,0.91,1
"ex354",-1.21,0.65,-0.47,-1.98,-1.94,0
"ex355",-0.61,-1.89,0.64,2.38,-0.26,0
"ex356",1.06,-0.47,-0.11,-0.38,1.42,0
"ex357",1.75,1.71,-0.64,-0.01,0.07,1
"ex358",-0.24,-1.77,-0.19,-0.17,0.06,2
"ex359",1.12,-0.52,-2.00,0.04,1.40,1
"ex360",1.34,-0.22,-0.90,0.21,0.33,0
"ex361",1.01,0.29,-0.85,-0.13,0.12,1
"ex362",0.04,0.66,-0.05,0.74,-0.02,0
"ex363",1.43,0.40,-0.14,-0.54,-1.71,2
"ex364",0.65,2.19,-0.75,-0.05,-0.77,2
"ex365",0.53,-0.52,-0.57,0.00,-1.45,2
"ex366",1.05,0.35,1.21,0.25,-1.13,2
"ex367",0.55,-0.29,-0.09,1.05,0.54,2
"ex368",-0.70,0.25,1.00,-0.58,-1.13,2
"ex369",0.79,0.28,-0.41,-0.40,0.80,0
"ex370",0.81,-1.42,0.73,0.93,-1.29,2
"ex371",-0.10,-0.29,-0.65,-1.60,-0.47,0
"ex372",-0.63,-0.19,-2.22,0.14,-0.66,0
"ex373",-0.46,0.62,1.33,-2.08,0.96,2
"ex374",0.44,-1.85,1.83,0.50,0.09,2
"ex375",-0.27,-1.10,0.58,-1.23,0.70,0
"ex376",0.36,-0.80,-0.15,-0.76,1.88,0
"ex377",0.02,-0.14,-0.73,1.30,0.90,1
"ex378",0.86,-1.61,-1.77,0.82,-1.65,0
"ex379",0.48,0.57,-0.09,0.17,-0.33,2
"ex380",-0.97,-0.48,0.10,0.13,-1.22,2
"ex381",0.01,-1.17,-0.54,0.59,0.92,0
"ex382",-0.07,-0.55,-0.64,-1.53,0.55,0
"ex383",-0.05,0.83,0.94,-0.45,1.88,0
"ex384",0.26,0.48,-0.13,-1.04,2.20,1
"ex385",-0.15,0.62,0.78,0.11,-0.26,2
"ex386",1.42,-0.04,0.35,0.78,-1.59,0
"ex387",1.27,0.37,1.06,0.32,1.00,0
"ex388",0.47,1.04,-1.90,1.76,-0.33,1
"ex389",-0.20,1.00,-1.25,0.78,0.16,2
"ex390",-0.33,1.89,1.16,0.19,-1.27,1
"ex391",-2.03,-1.20,-0.46,-1.62,0.64,1
"ex392",-1.23,1.65,1.04,-0.57,0.03,2
"ex393",0.03,0.26,-0.26,-0.88,0.88,0
"ex394",-2.42,0.47,-0.22,-0.24,-0.45,1
"ex395",1.30,0.43,0.57,0.07,1.18,0
"ex396",0.14,0.55,-0.82,0.70,-1.18,0
"ex397",0.69,0.73,0.01,1.11,-1.36,0
"ex398",2.17,-1.11,-0.24,0.20,0.46,0
"ex399",0.17,-0.41,-0.70,-0.44,1.76,2
"ex400",0.40,-0.13,-1.21,-0.34,-0.31,1
"ex401",-1.04,0.46,2.67,-0.65,0.92,1
"ex402",-0.18,-0.13,0.59,0.71,0.18,1
"ex403",-3.00,0.79,0.95,-1.48,-1.10,1
"ex404",-1.96,-1.39,-0.53,-0.17,1.56,0
"ex405",0.46,-0.61,-1.01,-1.05,1.31,2
"ex406",-0.18,-0.42,1.67,1.56,1.24,2
"ex407",-0.96,-0.75,-1.16,0.54,-1.84,1
"ex408",-0.72,-1.20,-0.79,0.31,1.43,2
"ex409",-0.58,-1.41,2.24,0.43,0.53,2
"ex410",-1.69,-1.26,-0.24,-0.10,2.77,2
"ex411",2.75,-0.01,-0.03,0.10,0.68,0
"ex412",0.96,0.39,-1.92,1.73,1.39,0
"ex413",1.13,-0.75,-0.78,-0.55,-1.71,2
"ex414",-0.49,0.37,-1.21,-2.31,0.55,2
"ex415",-0.30,-2.25,-2.66,-0.77,1.05,0
"ex416",-0.44,-0.29,0.32,0.81,2.05,2
"ex417",-0.44,-0.17,-0.57,0.99,-0.75,1
"ex418",-0.74,-0.11,0.92,0.29,-0.48,0
"ex419",-0.87,0.82,-0.06,0.64,-0.33,2
"ex420",-0.78,0.27,0.30,0.93,0.35,2
"ex421",0.03,-2.47,-0.38,-0.07,-2.01,0
"ex422",0.70,0.30,2.37,0.38,0.20,1
"ex423",-0.64,-0.12,-0.20,-0.19,0.89,1
"ex424",1.55,-0.87,-0.45,-1.29,1.18,0
"ex425",-0.74,1.07,-0.53,0.51,0.43,0
"ex426",1.00,0.89,0.88,0.94,0.62,2
"ex427",-0.28,-0.90,-1.40,1.73,-1.04,1
"ex428",1.40,0.32,0.83,-2.39,-0.92,1
"ex429",-0.60,-0.04,0.59,-0.37,1.09,1
"ex430",-0.31,-0.48,-0.90,-0.80,-0.07,0
"ex431",-0.37,0.80,-0.22,-0.36,0.90,0
"ex432",0.12,1.94,0.80,-0.58,-0.10,0
"ex433",-0.24,2.03,1.58,0.39,0.80,1
"ex434",-0.68,2.25,0.61,-0.82,1.75,2
"ex435",1.24,0.41,-1.33,2.61,0.60,2
"ex436",-0.92,1.29,0.79,2.72,-1.13,0
"ex437",-0.40,-1.87,2.44,-1.19,-1.35,0
"ex438",-0.56,-0.54,0.81,0.15,0.98,0
"ex439",0.57,0.76,0.03,0.18,-0.67,2
"ex440",-1.06,0.42,2.25,0.18,-1.62,2
"ex441",0.79,1.40,0.33,0.34,1.13,2
"ex442",-0.48,-0.55,-0.19,-0.36,-0.82,0
"ex443",0.01,0.58,0.82,-1.06,-0.68,0
"ex444",0.64,-1.20,-0.49,0.74,0.18,2
"ex445",-0.27,0.05,-0.46,-0.20,0.58,0
"ex446",-1.26,0.31,-0.23,-1.69,0.36,0
"ex447",1.29,0.41,0.71,-1.25,-2.01,2
"ex448",-0.76,0.52,-0.26,0.52,-0.02,0
"ex449",0.83,-0.52,-0.62,-1.61,0.47,1
"ex450",-0.24,0.08,-0.69,-0.27,-0.92,2
"ex451",0.07,-0.36,1.94,-0.84,-0.35,1
"ex452",0.97,-0.11,0.25,0.88,-1.34,0
"ex453",0.25,-0.45,-0.32,-0.15,-0.60,1
"ex454",1.55,1.05,-1.06,0.08,-0.43,0
"ex455",1.77,-0.90,0.51,0.02,0.05,2
"ex456",0.75,-2.14,2.41,1.28,-1.22,0
"ex457",-0.34,-0.67,-0.60,0.99,-0.03,1
"ex458",-0.28,-2.05,-1.72,1.39,-1.36,1
"ex459",0.71,-1.39,1.41,-0.11,-0.78,2
"ex460",-0.81,0.27,-0.33,-1.26,0.74,1
"ex461",0.36,-0.46,-0.49,1.01,0.77,2
"ex462",-0.23,-1.62,0.23,-0.33,1.20,2
"ex463",-0.13,0.26,-0.38,0.91,0.37,0
"ex464",-0.57,-1.66,-0.68,1.30,0.66,1
"ex465",1.46,-0.28,0.14,-0.24,-1.48,2
"ex466",0.32,0.17,-0.97,-1.77,0.36,1
"ex467",0.03,1.19,-0.20,0.55,-0.10,1
"ex468",-1.26,0.69,1.05,-1.14,-0.86,0
"ex469",0.52,1.19,0.82,0.85,0.69,0
"ex470",0.34,0.77,1.05,-0.20,0.66,1
"ex471",-0.21,0.41,-0.62,0.22,0.81,2
"ex472",0.67,0.62,-1.09,1.59,0.61,0
"ex473",-0.25,0.98,0.08,0.45,0.51,0
"ex474",2.20,-0.03,-0.09,-0.35,-1.65,2
"ex475",0.21,-0.64,0.70,-0.66,-0.72,1
"ex476",-0.65,0.21,0.74,1.11,-0.14,2
"ex477",-0.13,1.16,2.22,2.21,-0.77,0
"ex478",-0.77,-1.32,0.07,-1.70,1.17,0
"ex479",-0.22,0.27,-0.05,1.07,1.06,2
"ex480",0.39,0.01,-1.10,0.68,1.27,2
"ex481",-0.78,-0.77,-1.25,-1.53,-1.12,2
"ex482",0.96,0.22,-0.56,2.75,-2.02,1
"ex483",-0.60,-0.79,0.60,1.20,-0.88,2
"ex484",1.34,-0.58,-0.40,0.85,-1.22,0
"ex485",-1.52,0.47,0.13,0.16,0.52,1
"ex486",-0.56,0.14,0.56,-1.32,0.65,0
"ex487",-0.00,-0.88,0.06,-0.94,-0.72,2
"ex488",2.24,-0.54,-0.78,0.16,0.20,2
"ex489",-0.51,0.42,0.52,-0.01,0.40,1
"ex490",-1.91,-0.93,-0.04,0.13,0.72,2
"ex491",-0.28,-0.71,0.27,1.27,-0.08,2
"ex492",0.85,0.07,-0.51,1.40,-0.61,1
"ex493",-0.74,-0.98,0.37,-0.82,-0.81,0
"ex494",-0.12,-0.76,-2.32,1.46,-0.55,0
"ex495",-0.76,0.40,-0.16,0.20,0.94,1
"ex496",-0.69,0.12,1.08,-1.25,0.29,1
"ex497",-1.34,0.78,-0.79,-0.28,-1.79,1
"ex498",1.56,-1.49,-0.23,-1.13,2.32,0
"ex499",-0.72,-0.43,-0.88,-1.36,0.58,0
"ex500",-0.94,0.04,1.13,0.52,0.03,0
"ex501",-1.19,0.53,1.53,-1.39,-0.59,0
"ex502",0.96,0.43,0.05,-0.24,2.43,2
"ex503",0.35,0.69,0.70,0.32,-1.97,0
"ex504",-0.21,-0.87,-1.80,0.29,-0.43,0
"ex505",0.01,0.55,-1.48,0.43,0.12,0
"ex506",-0.16,0.18,1.30,-0.40,1.31,2
"ex507",0.27,3.09,0.71,0.66,-1.35,1
"ex508",0.73,1.47,0.75,-1.17,1.39,1
"ex509",-0.23,-0.95,0.21,1.09,1.43,0
"ex510",-1.81,1.51,0.99,1.18,0.84,1
"ex511",-0.54,0.63,0.07,-0.39,0.60,2
"ex512",2.33,0.43,-0.78,0.93,0.18,2
"ex513",1.85,-1.56,-0.93,0.65,1.72,0
"ex514",1.17,-0.01,-0.46,-0.53,-0.78,0
"ex515",0.89,-0.74,-1.24,0.44,-0.76,0
"ex516",0.91,1.65,-0.74,0.44,-1.47,0
"ex517",-0.58,1.53,-0.67,0.58,0.43,0
"ex518",-0.91,0.24,-1.48,-0.79,-0.94,2
"ex519",-0.68,-0.40,-0.60,-0.53,-0.44,2
"ex520",1.71,1.33,-0.30,1.77,0.42,0
"ex521",-0.22,1.76,1.59,0.11,0.10,1
"ex522",-1.11,-1.01,0.04,0.25,-1.08,2
"ex523",0.40,0.07,0.04,-1.00,-0.61,1
"ex524",-1.46,-0.62,1.90,-0.44,-1.58,0
"ex525",-0.23,1.17,-1.28,-0.48,0.08,0
"ex526",1.20,0.54,0.88,0.71,-1.47,0
"ex527",-1.62,0.95,-1.73,0.05,0.62,2
"ex528",0.86,-0.39,-2.52,0.72,-0.15,2
"ex529",-0.61,-1.81,-0.56,-0.04,-1.52,0
"ex530",0.16,-0.36,0.95,-0.37,-0.31,1
"ex531",-0.17,1.21,0.76,-3.33,1.15,2
"ex532",0.72,-1.52,-0.78,0.21,-0.10,1
"ex533",1.94,-0.34,0.82,0.95,-1.80,0
"ex534",-0.64,0.94,-0.99,-0.30,1.68,1
"ex535",0.70,1.53,-0.35,0.14,-0.45,0
"ex536",0.07,1.43,-1.56,-0.10,-0.72,1
"ex537",-0.09,-0.24,0.30,-0.04,0.86,2
"ex538",-1.76,-0.21,-1.20,-0.92,-1.06,2
"ex539",1.68,0.87,-0.95,-0.02,-0.90,1
"ex540",0.36,-1.92,0.52,-0.23,-0.36,0
"ex541",0.39,-0.60,-0.02,1.44,-0.83,2
"ex542",1.45,-2.03,0.59,-0.17,0.77,2
"ex543",1.39,1.39,-0.58,-0.11,-2.28,1
"ex544",0.29,-1.47,-2.06,0.80,1.22,1
"ex545",-0.20,0.51,1.04,1.86,0.08,1
"ex546",1.42,-1.09,0.59,-0.96,-1.06,0
"ex547",0.04,-0.57,-0.02,-0.17,1.01,2
"ex548",1.52,-0.41,0.34,-0.55,-0.39,1
"ex549",0.31,1.97,1.07,0.76,0.14,2
"ex550",2.50,1.03,0.23,0.73,-2.51,2
"ex551",0.22,0.05,-0.45,0.70,-0.90,0
"ex552",-1.60,0.60,1.08,1.92,0.61,1
"ex553",-1.46,-1.96,-0.28,1.05,0.04,2
"ex554",-1.42,0.97,0.01,1.55,0.23,1
"ex555",1.45,0.93,-1.99,-1.22,-3.05,1
"ex556",-0.27,0.51,0.67,-0.79,0.00,0
"ex557",0.15,-0.41,-1.62,-1.65,-1.20,0
"ex558",-1.41,-0.34,-0.34,0.66,0.24,2
"ex559",-0.49,2.34,0.10,0.03,0.64,0
"ex560",-0.41,-0.46,-1.58,0.68,0.24,1
"ex561",1.00,-2.03,-1.01,0.15,0.07,0
"ex562",1.14,-0.48,0.86,0.24,-0.89,2
"ex563",-0.04,-0.22,0.13,-0.45,-0.52,2
"ex564",-0.67,-0.61,-0.62,0.41,-0.23,2
"ex565",0.37,0.67,0.64,1.39,-0.25,1
"ex566",-0.53,-1.07,-1.02,-0.74,-2.77,2
"ex567",-1.02,-1.42,-0.11,-0.64,-1.46,2
"ex568",-0.11,0.83,0.21,-0.37,0.89,2
"ex569",0.41,0.86,0.14,-2.53,1.01,2
"ex570",-0.95,1.26,-0.06,0.65,-1.05,0
"ex571",2.64,0.15,-0.34,-0.33,1.25,0
"ex572",-0.67,0.69,1.40,0.27,-1.04,1
"ex573",0.13,-1.50,-1.40,-1.66,-0.16,2
"ex574",-0.62,-0.74,0.12,0.17,-0.88,0
"ex575",0.41,-1.89,-1.19,-1.62,-1.38,1
"ex576",1.29,0.22,1.37,0.05,-0.76,2
"ex577",1.69,-3.36,0.01,0.29,-0.74,0
"ex578",-0.42,-0.30,1.11,-0.03,-0.93,0
"ex579",0.71,-0.66,-0.66,-1.71,-0.19,0
"ex580",0.35,-0.43,1.44,0.10,-0.49,1
"ex581",-0.09,0.44,0.64,0.29,0.65,1
"ex582",-1.28,-0.87,0.38,0.32,0.29,1
"ex583",1.19,0.24,-1.60,-0.18,-0.97,2
"ex584",0.41,0.32,-1.96,-0.07,-1.00,0
"ex585",0.39,0.61,-0.22,-0.52,1.75,0
"ex586",-0.71,-1.37,0.95,-0.14,-0.03,1
"ex587",0.21,-3.39,0.01,0.34,-1.80,0
"ex588",-1.08,0.49,-2.36,-0.14,2.04,0
"ex589",-1.60,-0.17,1.15,-0.58,-0.41,0
"ex590",-0.22,-1.35,-1.57,0.70,-0.71,0
"ex591",-0.31,-2.06,-0.50,-0.17,-0.77,1
"ex592",-0.77,-0.39,-0.28,1.60,-0.12,1
"ex593",-0.92,0.30,-0.87,-0.02,0.86,1
"ex594",-0.71,0.91,0.55,0.57,0.79,1
"ex595",0.72,0.82,1.26,1.56,-0.31,1
"ex596",-2.39,-2.26,-0.26,0.84,0.63,1
"ex597",0.01,0.59,-1.03,-0.76,0.68,0
"ex598",-0.48,-0.04,1.14,0.91,0.04,1
"ex599",-0.85,-1.61,-0.22,0.29,0.35,2
"ex600",0.20,0.50,2.10,-0.93,-0.15,0
"ex601",-0.08,0.78,-0.66,-1.26,-1.79,1
"ex602",-0.82,1.21,-0.36,1.34,-0.57,0
"ex603",-1.23,-1.12,0.60,-0.65,0.24,1
"ex604",2.04,2.17,0.89,0.22,0.42,2
"ex605",-0.04,-0.20,0.61,-1.24,2.67,2
"ex606",-0.17,-0.17,0.51,-0.95,-0.23,1
"ex607",1.25,1.60,-0.23,-2.15,-0.47,2
"ex608",-0.76,-1.34,-0.59,1.24,1.68,2
"ex609",1.56,1.05,0.04,0.14,-0.18,1
"ex610",0.00,-1.24,-1.14,-1.11,0.49,0
"ex611",1.40,-2.24,0.75,-0.31,-0.42,0
"ex612",-0.55,0.82,-0.04,-0.55,-0.40,2
"ex613",-0.91,1.25,-0.60,-1.25,0.25,0
"ex614",1.15,-0.00,0.31,0.43,-0.32,1
"ex615",0.05,-0.15,0.97,-0.91,0.41,0
"ex616",-1.07,-0.05,-0.67,-0.44,-0.45,2
"ex617",0.07,1.64,-0.30,0.73,-0.68,0
"ex618",2.36,0.79,1.10,2.46,-0.82,0
"ex619",2.77,1.52,-0.44,0.26,0.67,1
"ex620",0.50,-1.15,-1.13,1.25,1.11,2
"ex621",-0.62,-2.09,1.58,1.21,0.20,0
"ex622",-0.66,0.65,-0.65,0.44,-0.32,2
"ex623",0.32,0.81,0.58,-1.00,0.13,0
"ex624",0.94,-0.53,-0.31,-0.78,-0.27,1
"ex625",0.41,0.51,0.74,-1.00,-0.62,0
"ex626",-1.73,0.63,1.40,0.25,0.13,1
"ex627",0.37,1.27,-0.91,0.58,-0.06,2
"ex628",-0.23,-0.98,2.02,1.17,0.89,2
"ex629",1.44,-0.97,-0.25,0.31,-0.11,2
"ex630",0.50,0.60,0.51,-1.88,1.12,0
"ex631",-0.62,0.65,0.28,-0.03,-0.26,0
"ex632",-0.62,-0.06,0.33,0.82,-0.02,0
"ex633",-0.65,-0.80,-1.34,0.39,0.71,0
"ex634",0.04,-0.63,-1.07,0.14,1.48,2
"ex635",0.44,-0.26,0.29,-1.98,0.43,2
"ex636",-0.86,0.24,0.69,-0.75,-0.62,1
"ex637",0.94,-0.81,0.88,2.01,-0.65,0
"ex638",0.84,0.01,0.10,-1.22,0.88,2
"ex639",2.71,0.10,0.09,-0.77,-1.33,1
"ex640",1.70,-0.11,-0.04,0.79,-0.12,2
"ex641",0.70,-1.14,-0.66,0.43,-0.00,1
"ex642",0.79,-0.89,1.18,1.93,-1.63,0
"ex643",-0.34,-0.17,-0.20,-0.48,1.78,2
"ex644",-0.57,0.26,0.47,-0.20,0.90,0
"ex645",-1.03,0.06,0.97,-1.14,0.00,1
"ex646",0.50,0.37,1.20,0.73,0.42,2
"ex647",1.11,1.53,-1.78,1.25,-1.87,2
"ex648",1.17,-0.96,1.38,-0.19,0.27,1
"ex649",-1.41,0.15,0.46,-1.18,0.68,1
"ex650",0.55,0.88,2.22,-0.11,-1.15,0
"ex651",0.11,0.01,1.17,1.21,0.04,2
"ex652",-0.21,1.15,-0.04,-0.15,0.10,2
"ex653",0.20,2.06,0.34,0.64,-0.82,1
"ex654",2.23,-0.83,-0.42,-0.37,-0.29,1
"ex655",-0.18,-0.92,-1.03,0.15,-1.23,1
"ex656",0.08,-1.66,-0.26,-0.13,0.82,0
"ex657",0.40,-1.12,-0.62,-0.17,-0.55,1
"ex658",0.39,1.60,0.87,-1.20,1.08,0
"ex659",0.01,0.26,0.78,0.08,1.90,1
"ex660",0.97,0.25,-0.29,0.75,-2.03,2
"ex661",-0.57,1.67,1.11,2.19,1.27,1
"ex662",0.83,0.66,2.43,0.63,-0.17,2
"ex663",0.63,-2.23,-0.21,0.71,0.60,2
"ex664",1.28,-1.83,1.31,-1.37,-0.40,2
"ex665",-0.22,1.89,-0.16,0.07,-0.28,2
"ex666",-0.04,1.31,-0.85,0.14,-0.09,0
"ex667",-1.65,-0.72,-0.21,0.12,-0.06,0
"ex668",-0.60,-0.11,-1.19,-0.26,-0.39,1
"ex669",1.63,-0.49,0.53,0.08,0.24,0
"ex670",0.65,-0.46,-0.12,-0.63,0.74,1
"ex671",-0.41,0.49,1.12,0.10,0.77,1
"ex672",-0.06,0.15,1.35,-1.48,-1.33,2
"ex673",0.76,0.51,-1.28,0.92,0.91,0
"ex674",0.17,-0.01,0.00,1.21,0.37,2
"ex675",-0.05,-0.27,0.17,0.60,0.45,0
"ex676",2.08,0.34,1.25,0.84,-1.27,1
"ex677",0.66,-0.16,0.83,0.14,0.93,2
"ex678",1.48,0.02,0.89,0.83,1.04,1
"ex679",-0.53,1.69,-1.72,-0.14,0.41,0
"ex680",-0.68,0.15,-0.27,0.34,-0.32,0
"ex681",0.46,-0.17,0.44,-0.72,1.03,0
"ex682",0.73,-1.84,0.17,0.56,0.30,0
"ex683",0.26,0.19,0.07,-0.35,0.56,2
"ex684",0.51,0.91,-0.13,1.74,-0.33,1
"ex685",-0.37,-0.87,-0.48,0.57,0.25,1
"ex686",2.09,-0.39,0.46,0.51,0.35,2
"ex687",-0.99,-1.58,2.02,0.04,-0.62,1
"ex688",0.55,-0.07,0.93,0.02,-2.03,1
"ex689",0.11,0.85,-1.59,-0.88,-0.67,0
"ex690",-0.13,-0.46,0.68,-1.07,-1.38,0
"ex691",0.57,0.79,-1.44,-0.65,-0.71,2
"ex692",0.39,-0.87,3.29,-0.36,0.62,0
"ex693",1.73,1.71,1.42,-0.87,-0.13,1
"ex694",-2.31,-0.21,-1.07,0.88,0.22,2
"ex695",2.03,0.66,-0.80,-0.52,-3.58,1
"ex696",1.02,-0.73,-0.93,1.46,-0.33,2
"ex697",-0.53,1.48,0.44,0.27,-0.53,1
"ex698",-0.05,0.47,1.29,0.79,-0.65,1
"ex699",0.32,0.04,0.01,0.53,-0.25,2
"ex700",0.24,-0.14,-0.60,2.06,-0.60,1
"ex701",-0.75,0.26,0.76,0.39,-0.29,1
"ex702",0.34,0.72,0.87,0.01,0.42,2
"ex703",-0.51,-0.62,0.78,1.03,0.68,1
"ex704",-1.02,-0.60,1.48,0.31,-0.67,2
"ex705",-0.32,-0.16,-0.18,1.27,0.71,1
"ex706",-0.77,1.35,-0.35,0.66,1.01,2
"ex707",0.34,0.72,0.25,-0.03,1.00,0
"ex708",0.71,0.71,-0.00,-0.50,0.20,1
"ex709",-0.41,0.00,0.10,-0.64,1.57,0
"ex710",1.76,1.71,0.76,0.34,-0.48,1
"ex711",-0.86,-0.33,-0.76,0.52,1.41,0
"ex712",0.31,0.09,-1.59,0.95,-2.79,0
"ex713",0.52,-0.13,0.63,2.41,1.36,2
"ex714",0.10,-0.44,2.25,0.34,-1.59,0
"ex715",0.11,-1.83,0.37,1.36,0.56,0
"ex716",1.27,0.94,-0.26,-0.46,0.62,1
"ex717",2.07,0.07,-0.32,0.50,-1.12,0
"ex718",0.29,-1.62,0.38,0.14,0.03,1
"ex719",-0.84,-0.52,0.19,1.27,-0.25,2
"ex720",0.63,-0.13,-1.89,-0.60,-0.11,1
"ex721",0.51,0.21,0.03,-0.51,0.06,2
"ex722",0.86,0.65,-1.14,0.14,0.25,0
"ex723",0.40,-0.47,-0.17,0.75,0.39,2
"ex724",-0.71,0.93,-0.88,0.02,-0.47,2
"ex725",-0.47,-1.61,1.57,-1.19,-0.05,0
"ex726",0.54,0.29,0.04,-1.13,0.54,0
"ex727",-0.33,0.89,-0.33,2.41,0.23,2
"ex728",-0.03,1.67,0.94,-0.87,1.60,0
"ex729",-0.53,1.86,-0.97,0.70,1.09,0
"ex730",1.15,-0.09,0.33,-1.18,0.48,2
"ex731",0.75,-1.19,-0.67,-0.36,0.90,0
"ex732",0.07,-0.15,0.27,1.01,-0.20,1
"ex733",-1.77,1.67,-0.23,-0.83,-2.55,2
"ex734",1.03,0.52,2.23,0.55,1.08,0
"ex735",-0.64,-1.04,0.39,-1.97,-0.28,1
"ex736",-0.33,-0.05,1.39,-0.47,-0.51,2
"ex737",1.46,-0.75,0.28,0.74,0.54,0
"ex738",-1.17,-0.51,1.00,-0.18,-2.01,0
"ex739",-0.83,-0.18,1.18,-0.07,1.02,2
"ex740",-3.00,1.09,1.12,0.91,0.31,0
"ex741",-0.48,0.25,-0.17,-1.17,-0.73,1
"ex742",-0.99,1.13,-1.01,-1.02,-0.17,1
"ex743",1.46,-1.57,1.69,0.10,-0.88,1
"ex744",-0.33,1.84,-0.58,1.19,1.12,1
"ex745",0.04,-0.06,-0.66,-0.64,-0.47,0
"ex746",-0.24,0.19,0.30,-1.30,0.91,1
"ex747",0.65,0.67,0.29,-0.24,1.22,0
"ex748",-0.25,0.75,0.53,-0.24,-2.43,2
"ex749",0.93,1.09,-0.93,0.10,-0.92,1
"ex750",-0.65,-0.88,0.32,0.92,-0.31,0
"ex751",1.39,0.81,-0.48,0.21,1.21,2
"ex752",2.14,1.04,-0.27,0.30,-0.07,0
"ex753",-0.02,-0.39,-2.24,0.39,-0.05,0
"ex754",-1.32,-1.40,-0.51,-0.74,0.78,2
"ex755",0.51,-1.43,-0.72,1.63,0.23,0
"ex756",1.91,-0.35,-0.43,-1.30,-0.99,0
"ex757",0.66,-1.18,-0.52,0.34,-0.33,1
"ex758",-0.66,-0.80,-0.02,0.17,-0.98,1
"ex759",-0.56,-1.33,-0.62,0.53,1.17,1
"ex760",-0.86,-1.51,-0.76,0.70,-0.14,2
"ex761",0.77,1.73,-0.53,1.10,-0.11,2
"ex762",-1.63,-1.09,0.68,-0.17,-1.15,0
"ex763",1.12,1.35,-1.86,-0.25,-1.29,0
"ex764",-0.13,-0.49,-0.04,1.12,-0.97,1
"ex765",0.70,-0.70,1.93,-1.50,0.94,0
"ex766",0.72,-2.62,-0.36,0.68,0.65,1
"ex767",0.22,-0.81,1.06,1.56,-1.52,2
"ex768",-0.01,-1.68,-0.68,-1.83,0.32,2
"ex769",0.88,1.51,-2.04,-0.49,-2.01,2
"ex770",0.37,0.14,-0.49,0.88,0.14,0
"ex771",0.15,-0.67,0.81,0.15,-1.56,2
"ex772",-1.45,0.87,-0.31,-0.83,0.27,2
"ex773",-1.79,0.26,1.04,-2.25,-1.50,0
"ex774",1.31,-1.16,-0.45,-0.74,0.19,0
"ex775",1.13,1.25,0.28,1.00,0.98,0
"ex776",1.17,0.61,-0.14,0.46,-0.39,1
"ex777",0.02,-0.26,0.24,1.41,-0.14,2
"ex778",0.63,0.36,0.96,2.00,-0.59,2
"ex779",0.19,0.24,0.85,0.56,0.30,2
"ex780",0.22,0.09,0.66,-1.35,0.16,1
"ex781",-0.64,-1.46,-1.29,-1.09,-1.20,2
"ex782",-0.55,0.34,2.24,-0.36,0.30,0
"ex783",0.50,-0.27,0.19,-0.13,-1.31,2
"ex784",0.96,0.13,-0.56,-0.20,-0.15,0
"ex785",-0.52,1.88,1.48,-1.23,0.00,0
"ex786",0.50,-0.80,0.42,-1.79,-2.40,2
"ex787",-0.79,1.52,1.04,0.42,-0.19,2
"ex788",-0.75,0.48,0.86,-3.24,0.33,2
"ex789",0.28,-1.92,-0.32,0.30,-0.02,0
"ex790",-1.81,-1.35,-0.13,-3.06,-0.43,0
"ex791",-1.27,-0.11,-0.59,-0.49,-0.72,0
"ex792",-0.40,-0.13,0.66,-0.01,-0.69,1
"ex793",-1.16,0.76,-0.15,0.82,-0.11,2
"ex794",-0.31,0.18,0.39,0.24,1.65,0
"ex795",-0.57,0.76,-0.76,0.52,0.31,1
"ex796",0.63,1.53,-0.58,1.44,1.18,0
"ex797",0.70,-0.41,1.02,-1.19,-0.77,0
"ex798",0.69,0.14,-0.51,0.02,0.47,1
"ex799",0.40,-0.45,0.72,-0.07,-1.03,2
"ex800",1.34,1.04,-0.52,0.36,0.23,0
"ex801",-0.27,-0.15,-1.78,-0.25,-1.35,2
"ex802",-0.98,0.08,-1.03,0.72,0.90,0
"ex803",-1.39,-1.20,0.55,0.30,1.07,0
"ex804",-0.38,-0.06,-0.24,-0.40,1.30,0
"ex805",1.20,-0.29,-0.94,0.87,0.93,0
"ex806",0.17,0.23,0.40,0.64,-1.19,2
"ex807",-0.25,0.69,0.17,-0.06,-0.69,0
"ex808",0.04,0.52,1.42,-1.40,0.89,1
"ex809",-1.68,-1.40,-1.11,1.01,0.42,0
"ex810",1.32,-0.23,-2.40,-1.04,0.89,2
"ex811",-0.21,-0.13,0.23,0.58,-0.58,1
"ex812",0.91,2.44,1.25,-0.71,0.78,1
"ex813",0.44,-1.87,0.04,-0.36,-0.48,2
"ex814",-1.37,-0.65,-1.24,-1.63,0.26,0
"ex815",1.27,2.29,0.61,-0.34,-0.24,1
"ex816",0.39,-0.18,-1.36,0.13,0.66,1
"ex817",0.02,-0.45,0.36,0.12,1.71,1
"ex818",1.98,-2.42,0.19,1.06,0.39,1
"ex819",0.22,0.74,0.41,0.80,0.08,1
"ex820",-0.32,0.44,2.02,-1.31,-1.28,1
"ex821",-0.57,0.40,0.10,1.58,-0.75,0
"ex822",-0.19,-1.19,0.68,-0.51,0.24,0
"ex823",-0.87,0.77,0.76,0.50,-1.81,0
"ex824",-0.49,1.91,0.74,-0.56,0.58,1
"ex825",0.53,-0.53,1.89,-0.18,-0.72,1
"ex826",-0.72,0.36,0.52,-0.02,0.09,0
"ex827",-0.27,0.22,-0.84,-1.14,0.71,0
"ex828",0.71,-0.88,-0.31,1.23,1.58,0
"ex829",-0.21,-1.14,-0.24,-0.75,0.18,2
"ex830",-0.85,-0.75,-0.87,1.05,-1.62,0
"ex831",1.00,-0.33,0.70,-0.01,-1.91,2
"ex832",2.14,0.73,-0.14,-2.16,0.19,2
"ex833",-1.56,0.29,-1.81,1.33,-0.59,2
"ex834",-1.61,-1.19,0.61,-0.97,-0.91,2
"ex835",-1.05,1.23,-3.06,0.08,0.30,0
"ex836",-0.79,0.65,-0.46,-1.22,1.24,2
"ex837",-0.73,0.93,0.75,-0.30,1.15,2
"ex838",0.06,-1.04,0.07,0.14,-0.16,2
"ex839",1.25,0.03,-0.83,-0.47,0.78,0
"ex840",0.41,0.67,-1.37,1.91,0.36,2
"ex841",0.02,-0.24,-0.68,1.32,-0.39,2
"ex842",-0.54,0.67,0.05,-0.04,0.82,1
"ex843",0.36,-0.91,-0.39,-0.55,-0.70,0
"ex844",-0.05,-2.21,0.08,0.64,-1.84,2
"ex845",-0.20,0.29,0.87,-1.41,-1.01,1
"ex846",-2.12,1.59,-0.36,0.73,0.54,1
"ex847",1.33,-0.12,-1.03,-0.80,-0.87,2
"ex848",0.93,-0.37,-0.96,1.22,0.68,0
"ex849",-0.06,-0.55,0.05,1.01,-0.76,0
"ex850",-0.47,-0.39,-0.21,0.15,-1.38,2
"ex851",-0.90,-0.11,-1.85,-0.83,-0.57,0
"ex852",0.82,-0.89,-0.74,-0.66,1.64,0
"ex853",-1.03,1.15,-0.96,-0.04,1.56,0
"ex854",0.81,-0.95,0.78,-0.38,-0.48,2
"ex855",1.49,1.53,-1.08,0.58,0.40,1
"ex856",-0.07,0.04,0.43,3.02,-0.69,1
"ex857",1.23,-0.27,-0.64,0.35,-0.95,0
"ex858",2.74,-0.77,-0.62,2.32,-0.65,2
"ex859",0.20,-0.78,-0.42,0.16,1.24,1
"ex860",1.28,1.62,-1.05,0.36,0.60,1
"ex861",-1.25,-0.06,-2.04,-0.60,-0.68,2
"ex862",-0.09,1.25,-0.25,0.41,-0.73,1
"ex863",0.05,-0.78,-0.82,1.19,-1.50,0
"ex864",-1.32,0.45,-1.59,-1.84,1.66,0
"ex865",-0.92,-0.42,-0.28,0.56,1.82,2
"ex866",0.50,-0.91,-0.18,1.22,-1.92,0
"ex867",-1.16,-0.11,-1.66,-0.97,0.55,2
"ex868",-1.80,-0.05,0.01,-0.31,1.61,2
"ex869",-0.10,0.82,-1.96,0.28,0.25,1
"ex870",-1.04,0.44,-0.49,0.13,1.32,0
"ex871",0.60,-1.74,1.21,-0.68,0.94,2
"ex872",0.46,0.70,-0.49,-0.76,-0.82,1
"ex873",-0.62,-0.69,-0.49,2.10,1.16,2
"ex874",-0.61,0.10,0.65,1.10,0.25,0
"ex875",0.32,0.45,-0.11,-0.51,1.20,1
"ex876",1.58,-0.06,-1.97,-0.11,0.50,1
"ex877",1.24,0.52,-0.40,-0.95,-2.25,1
"ex878",-0.10,0.15,-1.18,-0.29,-0.51,0
"ex879",-1.29,0.40,-0.78,1.09,0.94,2
"ex880",0.57,-0.82,1.31,-0.51,1.00,0
"ex881",0.22,0.64,1.56,1.13,0.46,1
"ex882",-1.30,-1.26,0.16,-2.03,0.48,0
"ex883",-0.29,1.13,-0.39,0.77,-1.53,2
"ex884",1.08,-1.21,1.52,-0.38,0.13,1
"ex885",0.20,0.16,0.35,-1.17,-2.19,0
"ex886",0.04,-1.14,1.38,-2.10,1.17,1
"ex887",0.51,0.87,0.64,-0.62,-0.08,0
"ex888",-0.85,1.70,0.89,0.03,-0.86,1
"ex889",-1.52,1.59,0.50,-0.53,0.35,1
"ex890",-1.81,-0.89,0.64,1.85,-0.02,2
"ex891",-0.82,0.10,-2.41,1.17,-0.28,1
"ex892",0.07,-1.39,1.76,-1.67,0.27,1
"ex893",-0.83,-0.64,-1.47,-1.12,0.32,0
"ex894",1.48,-0.17,-0.51,0.86,0.24,1
"ex895",-1.50,0.66,-0.03,0.03,0.37,0
"ex896",0.29,-0.15,0.03,0.17,-1.30,0
"ex897",-1.15,-0.05,-0.07,0.48,0.07,0
"ex898",-0.12,0.25,0.30,0.88,0.60,0
"ex899",-0.28,0.48,-0.75,-0.25,0.03,1
"ex900",-0.88,0.17,-0.45,-1.93,-0.15,1
"ex901",1.52,-0.96,-0.51,-0.33,-0.34,1
"ex902",0.91,-1.87,-0.29,0.27,1.31,1
"ex903",-0.63,-0.78,2.64,-1.10,0.68,2
"ex904",1.69,0.24,1.94,0.57,1.19,2
"ex905",0.52,-0.06,0.52,1.62,0.31,2
"ex906",-0.79,0.39,-1.64,-1.00,0.26,2
"ex907",0.65,0.84,-0.56,0.36,0.20,2
"ex908",0.21,-0.67,0.68,-0.61,-1.09,0
"ex909",-0.11,-1.02,-0.00,0.03,-0.65,2
"ex910",0.82,2.23,0.71,0.77,0.75,1
"ex911",1.02,-0.06,-0.51,-0.88,0.49,1
"ex912",0.55,1.07,0.45,0.47,-0.29,0
"ex913",-0.79,0.12,-0.59,0.02,0.50,2
"ex914",0.48,-1.02,-0.28,-1.18,0.94,0
"ex915",0.16,1.19,2.03,-0.27,-0.72,1
"ex916",1.60,-0.45,-0.08,-0.63,-0.58,2
"ex917",1.62,0.24,-0.47,0.59,0.92,0
"ex918",1.94,1.09,0.06,-0.92,0.40,2
"ex919",1.07,-0.64,1.67,-0.80,1.04,0
"ex920",1.12,-0.99,0.22,0.51,1.58,0
"ex921",0.25,0.92,0.33,-0.56,-2.46,0
"ex922",0.60,-0.21,-0.05,-0.53,0.28,1
"ex923",0.40,-0.16,0.23,1.66,0.33,0
"ex924",-2.02,-0.07,-0.85,2.28,1.73,1
"ex925",-1.40,-0.36,1.46,0.45,-1.41,1
"ex926",1.92,0.56,-0.58,-0.98,0.03,2
"ex927",1.06,0.94,1.94,-0.66,-1.11,0
"ex928",1.42,1.59,-0.89,-0.01,-0.29,0
"ex929",-0.59,1.42,0.41,0.53,-0.41,2
"ex930",0.55,-0.68,0.45,0.86,0.40,1
"ex931",-0.46,-0.12,1.31,-1.21,-0.25,2
"ex932",-1.64,1.14,-0.98,1.44,0.67,2
"ex933",-1.79,0.93,2.17,0.09,0.14,0
"ex934",1.32,-1.25,-1.15,0.24,0.85,0
"ex935",1.25,1.40,1.32,1.07,1.51,2
"ex936",1.08,-1.08,-0.13,-0.48,-1.68,2
"ex937",-0.92,1.88,0.78,0.46,1.76,0
"ex938",-0.01,1.79,0.92,-0.69,-0.92,1
"ex939",-0.33,-0.17,-0.79,-0.95,0.54,1
"ex940",0.75,-0.77,-1.34,-1.57,0.64,0
"ex941",-0.02,1.08,0.39,1.98,-0.63,1
"ex942",-0.28,-1.31,0.41,0.93,-0.04,0
"ex943",0.06,0.79,0.80,-1.49,-1.03,2
"ex944",-0.94,-0.90,1.03,1.19,0.71,2
"ex945",0.63,0.22,1.35,0.33,0.37,0
"ex946",-0.11,-0.33,-0.62,0.61,1.21,0
"ex947",-1.32,-0.32,-0.52,1.40,-0.91,0
"ex948",-0.19,0.51,-0.82,1.12,0.04,0
"ex949",0.32,1.01,0.24,-0.96,0.63,0
"ex950",0.09,-0.69,2.18,0.55,-2.07,2
"ex951",0.82,-0.93,-1.02,-0.17,-0.93,0
"ex952",1.06,-2.21,-0.36,-0.17,1.11,0
"ex953",1.11,1.30,-0.11,-0.06,0.41,1
"ex954",-0.13,0.77,1.12,1.08,2.23,0
"ex955",-0.52,0.75,-0.11,0.40,2.10,1
"ex956",0.69,2.23,-0.74,-0.42,-1.01,2
"ex957",-1.19,0.37,1.88,0.77,2.22,0
"ex958",1.81,0.30,0.52,0.28,-0.35,1
"ex959",-0.63,-0.42,-1.72,2.30,1.35,1
"ex960",-0.28,-1.54,-0.11,0.51,-0.87,2
"ex961",-2.43,0.08,-0.44,0.36,0.75,2
"ex962",0.99,-2.89,1.91,0.67,-0.88,2
"ex963",-0.54,0.34,-0.09,-0.94,0.67,2
"ex964",2.56,-0.59,-0.28,1.66,-0.68,1
"ex965",-1.08,0.35,-0.14,2.03,0.10,2
"ex966",0.80,0.74,1.29,-0.29,2.00,0
"ex967",2.13,-2.11,2.41,-0.55,0.67,0
"ex968",0.74,-0.62,-1.21,1.30,-1.45,2
"ex969",-1.39,0.26,1.58,-1.70,-0.62,0
"ex970",-0.01,-0.39,-0.19,3.00,0.54,1
"ex971",1.17,-0.14,0.29,0.73,0.34,1
"ex972",1.22,-0.66,-0.22,0.50,1.16,1
"ex973",-0.32,0.50,-0.93,-0.15,-0.22,1
"ex974",0.31,0.71,-0.87,-0.27,0.91,2
"ex975",0.01,-0.09,-1.78,-0.31,0.22,2
"ex976",-0.03,-1.54,0.86,0.81,-0.40,2
"ex977",0.05,0.64,-0.80,-1.25,1.32,0
"ex978",0.79,0.33,0.20,0.59,-0.71,0
"ex979",-0.38,-0.79,0.50,-0.73,-0.59,0
"ex980",0.46,-1.27,0.05,-1.80,0.32,0
"ex981",2.66,-0.90,0.96,-0.44,-1.10,1
"ex982",0.20,-1.00,0.45,-0.04,-0.39,0
"ex983",1.18,-0.18,0.58,0.82,0.93,1
"ex984",0.08,-0.30,0.02,0.23,-0.41,1
"ex985",-0.68,-1.55,0.11,0.65,1.78,0
"ex986",0.18,-1.02,-0.57,0.06,-3.00,0
"ex987",0.05,-0.17,2.12,1.10,0.94,0
"ex988",-1.28,0.02,-0.16,1.91,0.19,2
"ex989",0.48,2.30,0.18,-0.47,0.59,0
"ex990",-0.58,-2.14,1.55,-2.00,0.06,1
"ex991",0.43,-1.03,-1.48,0.23,-0.38,1
"ex992",-0.27,0.43,0.50,-1.82,1.24,1
"ex993",0.50,-0.87,1.05,-0.32,-0.81,0
"ex994",-0.79,0.63,1.21,0.03,0.53,2
"ex995",0.48,-1.28,-0.59,-0.10,1.50,2
"ex996",-0.26,0.40,-0.29,2.05,-0.48,1
"ex997",0.30,-0.06,-1.60,0.19,0.51,1
"ex998",0.99,1.27,-1.32,1.09,0.85,2
"ex999",1.34,-0.28,0.33,-0.51,0.18,2
"ex1000",-1.54,1.03,-0.42,-0.38,-0.42,2
"ex1001",0.78,-0.66,0.13,1.45,1.38,2
"ex1002",0.22,0.47,-0.70,-0.54,0.13,0
"ex1003",0.38,0.58,1.09,-0.50,0.64,0
"ex1004",-0.50,-0.74,-1.32,-1.72,1.43,2
"ex1005",-0.07,0.05,-0.13,0.76,-1.42,1
"ex1006",1.11,1.09,0.62,-0.35,-1.05,1
"ex1007",-0.96,-0.29,-0.17,2.25,-0.32,2
"ex1008",-1.94,-0.35,1.38,-0.58,0.02,2
"ex1009",1.61,1.14,0.13,0.90,1.06,1
"ex1010",-1.64,0.86,0.51,1.97,-0.66,1
"ex1011",0.56,-0.58,0.05,-0.81,1.24,0
"ex1012",-1.44,-0.21,0.79,0.37,2.27,1
"ex1013",-0.18,-0.01,-0.23,-1.39,-0.28,2
"ex1014",-0.05,-0.07,1.76,-0.31,-2.18,2
"ex1015",-0.02,1.21,-2.04,-0.91,-0.98,2
"ex1016",-0.59,-1.05,-0.24,-1.65,0.63,0
"ex1017",-1.22,-0.95,-0.62,1.74,-0.53,2
"ex1018",-0.07,-0.21,-1.31,-0.97,-1.94,1
"ex1019",0.48,-0.57,0.11,-0.11,0.10,0
"ex1020",-0.16,1.31,-0.89,0.72,0.23,0
"ex1021",-0.99,-0.61,-1.26,-0.96,0.40,2
"ex1022",-0.53,0.79,-0.32,-0.61,-0.35,2
"ex1023",-0.17,-1.05,-0.18,1.48,0.96,1
"ex1024",-0.50,0.35,-0.60,-0.27,1.08,2
"ex1025",0.54,0.74,0.27,0.77,-2.12,0
"ex1026",-0.80,-0.46,0.82,1.93,0.18,0
"ex1027",1.09,0.62,0.58,1.01,-0.45,2
"ex1028",0.34,1.16,0.05,1.20,-0.47,0
"ex1029",1.03,-0.76,-0.87,-0.82,-0.26,1
"ex1030",-0.17,-0.35,-1.46,1.26,0.40,1
"ex1031",-1.66,1.33,-0.88,0.78,0.75,2
"ex1032",-1.24,0.72,0.00,0.10,-0.80,2
"ex1033",0.40,0.82,2.19,-0.85,-0.58,2
"ex1034",-1.07,0.99,0.36,-2.69,-1.30,2
"ex1035",-1.65,-1.17,-0.44,0.43,-0.26,2
"ex1036",-0.24,-2.06,0.02,2.43,-0.66,1
"ex1037",-0.96,-0.75,0.98,1.08,0.33,0
"ex1038",-0.00,-0.61,0.40,0.28,1.02,0
"ex1039",1.21,-0.20,-0.39,0.76,1.22,1
"ex1040",-0.98,1.83,0.15,-0.75,0.32,2
"ex1041",-0.28,1.11,-0.49,0.34,1.11,0
"ex1042",0.32,0.75,2.25,-0.35,-0.48,2
"ex1043",0.13,-0.13,-0.96,0.59,-0.24,2
"ex1044",2.38,0.04,-0.30,0.17,2.04,1
"ex1045",-0.53,0.38,0.53,-0.51,1.18,2
"ex1046",0.29,-1.54,-0.75,-0.62,-0.27,1
"ex1047",-2.95,-0.17,-0.16,-0.09,0.18,1
"ex1048",-0.08,-0.91,-0.19,0.48,-0.16,0
"ex1049",0.98,-1.24,-2.67,-2.71,-1.76,0
"ex1050",0.06,-0.16,0.47,0.42,-0.16,0
"ex1051",-0.96,-0.81,0.04,-0.51,-0.02,0
"ex1052",-1.10,-1.58,1.08,0.23,0.20,1
"ex1053",1.39,-0.34,1.60,-0.82,-0.95,1
"ex1054",-0.28,0.84,-0.31,-0.73,-0.63,0
"ex1055",1.61,-0.86,-0.02,1.21,0.59,0
"ex1056",0.02,1.00,0.18,0.37,-0.07,2
"ex1057",-0.19,-1.06,1.85,0.61,0.19,0
"ex1058",-0.81,0.36,-1.48,-2.41,-0.97,1
"ex1059",-0.83,-0.24,-0.98,-0.82,-0.52,2
"ex1060",-1.44,0.93,-0.96,0.11,0.36,2
"ex1061",-0.83,0.69,-0.73,0.64,-2.09,0
"ex1062",1.60,-1.68,-0.78,-0.36,1.33,0
"ex1063",0.75,-0.13,-1.61,0.23,0.62,0
"ex1064",-0.58,1.20,1.97,-0.42,-1.44,1
"ex1065",-1.43,-1.29,0.30,0.62,0.65,1
"ex1066",0.10,0.51,-2.58,-2.54,0.57,0
"ex1067",-0.10,0.08,-0.26,0.59,2.23,2
"ex1068",0.13,0.00,-1.82,-0.22,-0.70,0
"ex1069",0.96,0.47,0.60,0.17,-0.13,2
"ex1070",1.25,1.08,-0.42,-2.55,-0.56,2
"ex1071",-1.80,-0.13,-1.01,0.30,0.01,1
"ex1072",-0.61,0.66,-1.23,0.00,-1.44,2
"ex1073",-0.75,0.23,1.11,-0.17,-0.49,2
"ex1074",1.20,-0.23,0.98,0.72,0.82,1
"ex1075",-0.70,0.23,-2.52,0.38,-0.88,1
"ex1076",0.85,-0.59,0.47,0.46,1.93,0
"ex1077",2.11,0.05,-1.39,1.11,2.04,2
"ex1078",-0.38,0.85,1.00,-1.92,1.10,1
"ex1079",0.79,1.55,-0.41,0.05,-0.18,0
"ex1080",-0.07,-0.36,1.62,-0.35,0.87,0
"ex1081",0.83,0.67,-1.14,0.67,0.15,0
"ex1082",-1.24,-1.31,-0.22,1.22,0.27,1
"ex1083",-0.39,-1.43,-0.60,-0.58,-1.56,1
"ex1084",0.19,0.98,0.95,-0.46,1.37,1
"ex1085",-0.43,-1.04,-0.07,-0.51,0.35,1
"ex1086",1.50,1.52,-0.44,0.79,0.24,2
"ex1087",0.19,-0.95,0.36,-0.43,-0.25,1
"ex1088",-0.33,-1.00,1.82,0.42,-1.26,1
"ex1089",-0.77,-0.87,-0.50,-1.28,-0.66,0
"ex1090",0.19,0.16,-1.37,-0.02,1.12,2
"ex1091",-1.37,2.27,2.28,-0.21,-0.71,1
"ex1092",-1.28,-0.34,0.55,0.95,0.39,2
"ex1093",-1.56,1.53,0.12,-1.64,1.53,2
"ex1094",0.68,0.90,1.28,-1.12,1.53,0
"ex1095",-0.10,1.22,0.23,0.28,0.94,2
"ex1096",1.76,-1.37,-1.09,0.31,-0.52,2
"ex1097",-0.20,-1.71,0.93,-0.23,0.43,2
"ex1098",-1.03,-1.15,0.53,-0.94,0.78,0
"ex1099",-0.66,0.93,-0.15,-0.40,1.17,1
"ex1100",-1.15,0.12,-1.71,-0.92,-0.62,0
"ex1101",1.00,0.70,-0.05,0.75,1.31,1
"ex1102",-0.18,0.02,-1.03,-0.18,1.05,0
"ex1103",2.34,-0.40,-0.72,-0.28,0.23,1
"ex1104",0.61,0.18,1.55,2.09,-0.74,1
"ex1105",0.94,1.46,0.22,-1.33,0.18,2
"ex1106",-0.83,0.22,0.29,-1.67,-1.54,0
"ex1107",-1.00,0.21,-0.23,1.09,0.31,1
"ex1108",1.21,0.18,-1.59,1.06,-0.40,2
"ex1109",1.06,2.20,1.47,0.38,-1.55,1
"ex1110",-1.47,0.18,-0.90,0.08,0.83,1
"ex1111",-0.77,-0.58,-1.24,-0.77,-1.28,2
"ex1112",0.44,0.13,-0.40,1.89,-0.74,1
"ex1113",-0.34,1.83,-2.31,-1.47,-0.72,2
"ex1114",0.24,-0.63,0.44,0.58,1.37,1
"ex1115",0.25,0.72,-0.88,-0.62,0.30,1
"ex1116",-1.14,-1.18,-0.07,1.00,1.89,2
"ex1117",0.77,-0.02,-1.60,-0.42,-0.18,2
"ex1118",-0.52,-1.50,0.25,0.83,0.62,2
"ex1119",0.52,1.66,-0.70,-1.05,-0.69,2
"ex1120",-0.61,-0.09,0.94,-0.46,-1.13,0
"ex1121",-0.08,0.79,-2.66,0.73,-0.17,0
"ex1122",0.49,1.83,-0.77,-0.54,-1.66,0
"ex1123",1.19,-0.36,0.17,-0.38,0.03,0
"ex1124",-1.38,-0.31,0.04,0.30,0.60,0
"ex1125",0.81,0.39,0.05,-2.12,0.06,0
"ex1126",-0.74,0.13,-0.01,-1.37,-1.19,2
"ex1127",-0.04,-1.27,-0.91,0.56,-0.19,2
"ex1128",0.05,-0.69,-0.35,-0.62,-0.63,1
"ex1129",-1.54,0.01,2.06,-1.30,-0.16,2
"ex1130",-0.37,-2.79,-1.21,-0.30,0.45,0
"ex1131",0.87,1.15,0.94,-0.23,-0.13,0
"ex1132",-0.00,-1.80,1.35,-0.97,0.52,0
"ex1133",0.17,-0.42,-0.04,-0.37,-0.32,1
"ex1134",-0.07,-1.34,-0.07,0.68,1.34,0
"ex1135",-1.15,2.04,1.74,1.80,0.08,1
"ex1136",1.35,-0.45,-0.19,0.11,-0.08,0
"ex1137",0.18,0.66,1.05,-0.04,-2.15,0
"ex1138",1.70,-0.90,0.52,-1.33,-0.01,0
"ex1139",0.46,-0.51,0.69,-0.71,-1.41,0
"ex1140",0.29,-0.60,1.20,1.92,-0.08,0
"ex1141",-0.55,1.40,0.29,0.05,0.00,2
"ex1142",-1.05,-0.70,0.33,0.40,0.18,0
"ex1143",0.46,-0.43,-1.22,-0.14,1.84,1
"ex1144",-0.16,0.37,2.34,-0.32,-1.44,1
"ex1145",1.43,0.35,-1.86,1.01,-0.15,0
"ex1146",-0.37,0.92,0.94,-1.92,0.62,0
"ex1147",-0.53,-1.06,0.36,-1.11,0.11,0
"ex1148",-0.96,0.78,-0.99,-2.12,-1.16,0
"ex1149",0.34,-0.60,-1.46,-0.91,1.42,2
"ex1150",1.11,-1.49,0.16,-1.04,-1.60,0
"ex1151",0.50,-0.22,0.46,-0.84,0.32,0
"ex1152",0.20,0.34,0.08,0.00,1.41,0
"ex1153",0.12,0.83,-0.18,0.26,-0.03,2
"ex1154",1.44,0.60,1.02,-0.53,-1.39,2
"ex1155",1.87,-0.26,-0.60,1.21,-0.01,0
"ex1156",-0.25,0.65,1.77,0.78,-0.69,1
"ex1157",0.75,0.75,0.04,0.03,-1.00,0
"ex1158",0.67,-1.14,-0.30,-1.31,0.93,0
"ex1159",-0.77,1.77,-0.86,0.76,1.30,1
"ex1160",-0.43,-0.73,-1.97,-1.03,-0.42,1
"ex1161",-0.32,-0.38,-0.10,0.45,-0.19,0
"ex1162",0.06,-0.83,0.27,0.02,0.71,1
"ex1163",-0.01,0.15,1.52,0.82,-1.44,0
"ex1164",-1.63,0.99,-2.19,-0.67,1.38,0
"ex1165",-0.27,-0.56,-1.22,-0.91,-0.72,0
"ex1166",-0.24,-0.05,0.46,1.04,0.99,1
"ex1167",0.90,-0.73,0.53,-0.79,0.52,1
"ex1168",-0.87,1.17,1.58,-1.56,-0.99,1
"ex1169",0.95,1.43,-1.83,-0.05,-2.01,2
"ex1170",0.05,-1.46,-0.10,0.74,-0.06,0
"ex1171",-0.93,0.32,-0.21,0.39,1.48,0
"ex1172",-0.35,-0.63,0.11,1.31,0.59,0
"ex1173",0.42,-0.86,0.04,-0.36,0.45,0
"ex1174",1.69,0.49,0.12,-0.61,0.14,0
"ex1175",0.09,1.89,0.61,-1.51,-0.24,0
"ex1176",-1.07,0.00,-0.64,-0.11,0.59,2
"ex1177",0.99,0.34,0.16,1.59,0.14,0
"ex1178",0.75,0.35,-0.66,0.50,-0.17,2
"ex1179",0.91,-1.30,-2.63,0.69,-0.80,0
"ex1180",-1.45,0.51,-0.61,0.60,0.67,2
"ex1181",-0.62,-0.34,1.27,0.56,-0.02,2
"ex1182",-2.35,0.89,0.26,0.57,1.51,1
"ex1183",1.44,-0.19,-0.46,-0.33,1.40,0
"ex1184",0.45,0.10,-0.11,-1.45,1.07,1
"ex1185",0.96,-1.24,1.77,-0.04,0.81,1
"ex1186",0.41,0.56,-0.42,-0.32,-0.39,2
"ex1187",0.59,1.91,-0.04,1.26,0.15,0
"ex1188",-0.19,-0.45,-0.19,-0.84,0.19,0
"ex1189",-0.30,-0.94,1.37,-0.22,-0.79,2
"ex1190",0.49,-0.21,1.48,-1.77,-0.17,0
"ex1191",-1.73,-0.40,-2.27,0.45,0.36,0
"ex1192",0.77,1.48,-0.00,-1.05,1.28,1
"ex1193",0.63,-0.08,0.36,-2.16,-2.69,1
"ex1194",-1.84,0.27,0.16,-0.18,-0.20,0
"ex1195",0.50,0.67,-1.06,-0.32,-1.14,0
"ex1196",-1.01,0.97,0.60,-0.51,-0.55,2
"ex1197",0.48,-0.02,0.62,-1.11,1.09,0
"ex1198",0.26,0.13,-1.09,0.25,-2.25,0
"ex1199",-0.16,1.98,0.99,-2.05,-0.09,2
"ex1200",1.61,-1.25,1.11,-0.24,0.48,1
"ex1201",2.06,-0.43,0.02,1.79,1.81,0
"ex1202",-0.63,-1.14,-0.59,1.77,-0.33,2
"ex1203",-1.93,-0.20,0.74,2.03,0.14,1
"ex1204",0.02,-0.23,-0.25,0.07,-0.06,1
"ex1205",-0.38,0.50,-2.43,-1.74,1.70,0
"ex1206",1.12,0.80,-0.46,-0.65,-1.13,2
"ex1207",-0.97,-1.49,-0.42,1.72,0.79,1
"ex1208",-0.97,-2.62,0.08,-1.38,0.11,0
"ex1209",-0.02,0.97,2.11,-0.69,1.60,1
"ex1210",-0.77,0.23,-0.44,0.21,-0.26,1
"ex1211",0.08,-0.02,0.39,-2.39,2.52,1
"ex1212",-0.78,0.64,-0.92,1.02,-0.78,1
"ex1213",-1.54,0.37,1.32,0.86,0.04,2
"ex1214",-1.27,-0.91,-1.39,-0.34,0.66,0
"ex1215",0.76,1.12,0.12,0.07,0.00,0
"ex1216",1.48,-1.56,1.93,1.37,-0.49,2
"ex1217",0.51,0.23,1.93,-0.57,0.57,0
"ex1218",-0.64,0.86,-1.45,-0.26,-0.79,1
"ex1219",0.03,1.75,0.18,-0.65,-1.35,1
"ex1220",0.08,-2.56,-0.60,0.66,-1.29,0
"ex1221",2.41,0.61,-1.33,0.24,-1.51,1
"ex1222",-0.20,-0.54,0.05,0.80,-0.47,0
"ex1223",-0.45,-1.15,-2.76,-0.59,-2.39,2
"ex1224",-0.75,-0.81,-0.99,-1.13,-0.46,0
"ex1225",0.05,0.59,1.24,2.65,0.13,2
"ex1226",-0.65,-1.41,-0.37,-2.28,-1.86,1
"ex1227",0.74,-0.47,0.93,-2.05,2.14,0
"ex1228",-0.89,1.25,-0.20,-0.82,-0.84,2
"ex1229",0.92,0.90,0.59,-1.38,0.32,2
"ex1230",-0.17,-0.90,-0.73,1.16,0.86,2
"ex1231",-0.35,-1.36,0.66,-0.66,-0.83,2
"ex1232",0.12,1.20,0.18,-0.10,-0.22,1
"ex1233",-0.26,1.06,0.39,0.85,-0.78,0
"ex1234",0.18,-0.75,0.06,0.09,0.14,1
"ex1235",0.26,0.18,-0.88,-1.33,-0.44,2
"ex1236",-0.20,0.23,1.00,0.56,-1.23,0
"ex1237",0.60,-0.59,-0.09,-0.15,0.58,1
"ex1238",-0.64,-0.22,-0.47,-0.03,0.43,0
"ex1239",1.61,0.00,-0.51,2.69,-0.04,2
"ex1240",1.19,-1.94,-0.92,-1.09,1.36,1
"ex1241",-0.67,-1.21,0.42,0.32,2.41,0
"ex1242",-1.49,0.14,-0.17,0.19,2.70,0
"ex1243",0.92,-0.81,1.73,0.73,-0.62,0
"ex1244",2.02,0.79,-0.65,-0.68,1.34,2
"ex1245",-0.29,2.22,-0.06,-0.43,-0.34,0
"ex1246",0.05,-1.70,-0.30,2.16,1.10,0
"ex1247",0.31,0.30,0.61,0.13,0.66,0
"ex1248",0.59,-1.50,-0.10,1.27,0.41,0
"ex1249",0.03,-1.19,0.99,1.18,0.36,2
"ex1250",-1.20,1.15,-0.19,-0.70,-1.53,2
"ex1251",0.58,-0.72,1.38,1.01,-0.13,1
"ex1252",-1.30,0.41,1.25,-0.55,-0.89,2
"ex1253",2.00,-0.48,-0.20,1.49,-1.35,1
"ex1254",-0.47,0.35,0.05,-0.77,1.05,1
"ex1255",-0.13,-0.92,0.11,-0.08,-0.30,2
"ex1256",-1.59,1.57,-0.29,1.90,2.15,0
"ex1257",-1.26,2.41,0.24,-0.02,-0.15,2
"ex1258",0.19,0.00,-0.37,-1.09,1.80,2
"ex1259",-1.24,-1.04,-0.38,0.28,-2.08,0
"ex1260",0.04,1.26,-0.06,0.94,-2.07,1
"ex1261",-0.92,-1.07,-0.10,1.33,1.32,2
"ex1262",-0.58,-0.68,-0.43,0.13,0.24,1
"ex1263",1.92,-0.15,0.82,0.80,-0.54,1
"ex1264",-0.32,-1.35,-0.17,-1.33,0.59,0
"ex1265",-0.11,-0.36,0.98,1.15,-1.00,1
"ex1266",0.89,-0.71,0.19,-0.33,-0.23,0
"ex1267",-0.57,1.59,-1.64,1.12,0.31,0
"ex1268",-0.05,0.48,-0.73,-0.42,2.65,1
"ex1269",-0.97,0.97,-0.65,-0.18,-0.41,2
"ex1270",0.03,-0.15,1.41,0.99,0.11,0
"ex1271",-0.67,-1.06,-2.19,-1.58,1.17,1
"ex1272",0.43,-0.15,0.19,-0.03,-0.81,0
"ex1273",-0.00,-0.40,2.06,1.69,-1.49,2
"ex1274",0.51,-0.24,1.47,0.13,0.27,1
"ex1275",-1.62,-1.17,-0.52,1.33,-0.23,0
"ex1276",0.60,0.55,1.18,0.87,-0.84,2
"ex1277",0.30,-0.63,1.98,-0.95,-0.21,1
"ex1278",0.35,-0.59,1.17,-0.15,0.43,2
"ex1279",0.98,0.11,-0.70,-0.47,-1.92,1
"ex1280",-0.19,-0.16,-0.56,1.28,-0.60,1
"ex1281",0.40,0.17,1.53,-1.05,1.57,2
"ex1282",0.22,0.85,0.74,0.79,-0.63,1
"ex1283",0.57,0.46,1.22,0.07,-2.04,0
"ex1284",-0.01,-1.00,0.39,0.57,-0.79,2
"ex1285",0.56,0.88,-0.60,-0.53,0.40,0
"ex1286",0.72,-0.48,-0.49,-0.81,-0.21,0
"ex1287",0.77,-0.30,-2.25,-1.18,-1.08,0
"ex1288",0.35,-2.42,0.12,0.13,-0.65,0
"ex1289",1.07,-1.03,-1.18,-0.32,-1.66,1
"ex1290",-0.37,0.67,1.60,0.46,0.24,1
"ex1291",-1.41,-1.23,-1.27,-2.04,0.27,1
"ex1292",0.07,0.56,-0.62,-1.69,-1.16,0
"ex1293",-1.13,-0.41,-0.47,-0.05,-1.44,1
"ex1294",0.03,0.30,0.91,0.01,0.68,0
"ex1295",0.35,1.33,-0.35,0.01,-1.21,0
"ex1296",0.83,0.23,0.93,-0.92,2.29,1
"ex1297",0.08,0.59,-0.15,-1.60,-0.99,2
"ex1298",-0.35,-1.67,0.86,-0.41,-0.51,0
"ex1299",-0.15,-0.21,0.60,-0.91,0.90,0
"ex1300",-1.55,0.15,1.66,-0.58,0.02,0
"ex1301",-1.72,-0.73,0.73,1.22,-0.85,1
"ex1302",2.66,0.66,-0.01,-0.90,-1.10,0
"ex1303",-0.11,1.14,0.98,-2.16,-0.41,1
"ex1304",1.24,-1.15,-1.30,-2.14,0.85,1
"ex1305",0.27,-0.25,-0.50,-1.22,0.13,0
"ex1306",-0.06,-2.17,-0.84,-0.31,0.26,1
"ex1307",0.27,-1.28,-1.62,-0.51,0.80,2
"ex1308",0.99,-0.28,-0.18,-0.25,-0.10,2
"ex1309",-1.11,-0.37,0.79,-0.86,-1.67,0
"ex1310",0.95,0.69,1.61,0.27,0.06,1
"ex1311",0.81,0.06,-0.10,0.53,0.59,2
"ex1312",-0.22,-1.72,0.98,0.82,0.09,0
"ex1313",0.01,0.88,0.36,1.74,2.31,2
"ex1314",-1.57,-0.10,-0.05,1.28,-0.85,1
"ex1315",1.17,-1.02,1.10,-0.88,-0.93,1
"ex1316",-1.28,-0.31,1.45,1.24,0.14,1
"ex1317",0.19,-1.38,-1.83,0.17,-1.06,0
"ex1318",-1.13,-0.80,-0.62,0.33,-0.31,2
"ex1319",0.52,0.27,0.77,-1.26,0.40,0
"ex1320",-0.38,-0.58,-2.04,0.65,0.05,2
"ex1321",-0.99,-1.43,1.02,0.05,0.67,0
"ex1322",2.00,0.50,-0.02,0.03,-0.53,0
"ex1323",-1.56,-1.42,-0.13,-1.15,-1.15,1
"ex1324",0.22,-0.77,-0.97,0.63,1.19,1
"ex1325",-1.64,-0.55,0.45,0.45,0.02,2
"ex1326",0.02,-0.94,-1.55,0.27,0.40,2
"ex1327",0.61,-0.33,0.95,-0.61,-1.88,0
"ex1328",-0.86,-0.61,-1.16,0.25,0.22,0
"ex1329",3.17,0.91,0.98,-0.78,0.25,1
"ex1330",0.25,0.06,0.23,-0.46,0.29,0
"ex1331",-0.12,1.12,0.24,1.33,-0.59,0
"ex1332",0.09,-1.30,-0.32,-0.23,-1.94,1
"ex1333",0.62,-0.39,-0.34,0.49,0.42,1
"ex1334",-1.37,-0.84,-0.19,-0.25,0.90,1
"ex1335",1.51,0.16,-1.06,0.66,-0.68,1
"ex1336",1.53,1.68,-1.19,0.23,-1.45,1
"ex1337",1.62,-0.99,-1.97,1.85,0.89,0
"ex1338",0.78,-0.64,0.31,1.52,-0.37,2
"ex1339",1.07,-1.94,0.23,0.97,0.79,2
"ex1340",0.50,0.51,-0.60,1.30,-1.50,1
"ex1341",-0.51,-1.12,-0.59,-0.58,0.33,0
"ex1342",-0.07,-0.37,1.73,-0.35,0.90,1
"ex1343",1.11,-0.17,0.72,0.18,-0.82,1
"ex1344",-1.52,0.71,-0.05,-0.11,0.89,2
"ex1345",-0.17,0.61,-0.46,-0.87,-0.99,2
"ex1346",1.29,0.59,1.50,-0.09,-0.73,1
"ex1347",0.20,0.12,-0.78,0.52,-0.54,1
"ex1348",-0.55,-0.85,-1.34,0.51,0.23,1
"ex1349",1.54,-2.23,-1.49,0.30,1.46,2
"ex1350",0.79,-0.85,0.71,-0.37,-1.19,0
"ex1351",0.20,0.61,-0.76,-0.53,-0.53,2
"ex1352",0.17,0.34,-0.91,-0.20,-1.08,2
"ex1353",-0.29,0.36,-1.06,0.87,1.38,0
"ex1354",0.90,-0.81,-0.31,0.03,-0.12,1
"ex1355",-0.20,1.47,0.74,0.83,1.60,2
"ex1356",-1.45,-0.54,0.12,0.74,0.47,1
"ex1357",-0.48,1.10,1.28,-0.34,0.21,0
"ex1358",0.36,0.79,-0.16,0.63,0.46,2
"ex1359",0.33,0.51,0.16,1.82,-0.19,1
"ex1360",1.57,-3.20,0.53,-0.76,1.22,2
"ex1361",-0.73,0.06,-0.25,-0.71,1.03,1
"ex1362",1.23,0.10,-0.51,-0.89,0.58,1
"ex1363",0.49,-0.95,-1.88,1.41,-0.28,1
"ex1364",-0.58,-0.97,1.14,0.27,1.41,2
"ex1365",0.29,-1.56,-0.17,0.54,-1.22,1
"ex1366",-1.02,0.48,-1.41,-0.36,1.73,2
"ex1367",-1.54,-1.36,-0.48,-1.17,1.97,1
"ex1368",-0.95,0.85,-2.23,-1.33,-0.27,2
"ex1369",1.28,-0.00,0.00,-0.25,-0.74,0
"ex1370",2.55,-2.04,0.16,-1.30,-0.68,1
"ex1371",-0.92,0.74,-0.56,-0.33,0.75,0
"ex1372",0.40,0.01,0.80,-0.88,-0.27,1
"ex1373",0.02,-0.07,0.96,-0.52,0.09,2
"ex1374",1.56,1.64,-0.55,0.21,1.37,0
"ex1375",-0.17,-1.05,0.06,0.88,1.05,2
"ex1376",0.68,-0.08,0.23,0.71,-0.04,0
"ex1377",0.90,-0.87,-0.35,0.58,0.96,2
"ex1378",-0.02,-0.09,0.01,-0.39,0.67,0
"ex1379",-0.85,0.60,-0.45,1.51,0.66,2
"ex1380",-0.16,-0.03,0.05,-2.84,0.49,0
"ex1381",-0.92,-0.07,0.69,-0.47,-0.30,0
"ex1382",-1.21,-1.06,-0.95,-0.62,-2.39,1
"ex1383",0.84,0.31,0.58,0.19,-0.12,0
"ex1384",0.43,1.58,-0.24,-0.10,0.00,1
"ex1385",1.34,0.59,-0.27,-1.23,1.45,2
"ex1386",-0.69,-0.93,1.95,0.13,-0.19,2
"ex1387",0.11,0.09,-0.16,1.35,-0.14,0
"ex1388",-0.35,0.87,0.81,-1.95,1.20,1
"ex1389",-0.52,1.53,-0.33,-0.16,0.44,2
"ex1390",-0.56,-0.44,-0.47,0.72,-0.85,2
"ex1391",0.55,0.72,1.56,-0.09,0.43,1
"ex1392",-0.22,0.40,1.53,1.45,-0.60,0
"ex1393",0.27,0.56,0.02,2.42,-0.57,2
"ex1394",0.31,1.95,-0.45,0.88,2.33,0
"ex1395",0.07,-0.85,-0.24,-1.30,0.06,0
"ex1396",0.45,0.38,0.94,0.65,0.17,0
"ex1397",-1.60,-0.71,-0.42,0.90,1.38,1
"ex1398",0.21,-1.49,0.97,1.54,1.56,1
"ex1399",-0.79,-0.46,0.60,-2.05,1.26,2
"ex1400",1.96,0.11,-1.00,-0.28,-1.10,0
"ex1401",0.98,-0.55,-1.20,-0.56,-0.92,0
"ex1402",-0.04,-0.97,-0.24,0.63,0.39,1
"ex1403",1.60,-0.80,0.05,0.79,-1.13,0
"ex1404",-1.22,0.50,-0.38,-1.10,0.92,2
"ex1405",-1.19,-0.69,0.90,-1.11,-1.05,0
"ex1406",0.27,-0.21,-0.48,-1.07,-0.85,2
"ex1407",1.13,0.10,-1.21,-0.56,-1.79,2
"ex1408",1.03,-1.75,0.11,0.21,1.44,0
"ex1409",-1.92,-1.44,-1.12,-0.21,-0.31,2
"ex1410",-0.84,0.15,0.17,-0.17,-1.19,1
"ex1411",-1.27,0.18,0.16,0.74,1.31,1
"ex1412",1.38,-1.14,0.23,0.48,-0.75,0
"ex1413",0.43,-0.42,-0.07,0.14,1.19,2
"ex1414",-0.04,1.50,1.11,-0.73,-0.19,2
"ex1415",0.61,-0.97,0.36,0.89,-0.04,2
"ex1416",-2.08,-1.38,-1.50,0.64,1.92,1
"ex1417",-1.25,-0.87,1.81,-0.53,-1.02,0
"ex1418",0.35,-0.08,0.40,0.02,0.25,1
"ex1419",0.85,0.76,0.95,-0.39,2.87,0
"ex1420",0.94,0.35,-0.62,-0.31,1.14,1
"ex1421",-0.30,-0.29,-0.09,0.68,-1.05,2
"ex1422",0.92,0.48,-1.38,0.18,0.22,2
"ex1423",-0.40,-0.12,-0.42,0.36,-1.10,0
"ex1424",2.05,-1.23,-0.83,0.22,-1.21,0
"ex1425",-0.00,-0.64,0.08,-0.38,-0.58,0
"ex1426",-1.00,0.53,-1.98,-1.46,0.85,1
"ex1427",-0.40,0.94,-1.29,-0.49,-1.59,2
"ex1428",-1.37,-0.22,0.27,0.50,-0.41,1
"ex1429",-0.16,0.70,-0.11,1.24,-0.11,2
"ex1430",0.64,-0.74,-1.50,-2.28,-1.10,2
"ex1431",0.72,-1.08,0.68,-0.48,-0.29,1
"ex1432",0.58,-1.62,1.47,-0.35,0.47,2
"ex1433",-1.10,-0.23,-0.71,0.00,-1.88,1
"ex1434",0.32,0.18,0.05,0.61,1.55,0
"ex1435",0.09,-0.77,0.42,1.72,-0.76,1
"ex1436",-0.17,-1.11,-0.42,0.29,0.57,2
"ex1437",0.03,-0.43,0.28,0.39,0.98,0
"ex1438",1.04,0.32,-0.22,1.36,-1.81,0
"ex1439",0.12,-0.04,1.35,1.18,-1.11,0
"ex1440",0.61,-0.39,0.57,0.84,0.02,0
"ex1441",-0.14,-0.66,-2.60,-0.99,-0.95,1
"ex1442",-0.23,1.20,-0.01,0.23,0.57,1
"ex1443",0.45,1.67,-0.51,-1.41,-1.04,2
"ex1444",-1.26,2.22,0.46,0.31,0.21,0
"ex1445",0.78,-0.04,0.22,-0.87,0.86,0
"ex1446",-0.61,-0.16,-0.74,-1.12,0.65,1
"ex1447",0.66,-0.73,-0.36,1.20,0.75,1
"ex1448",-3.10,1.49,0.10,-1.14,1.49,1
"ex1449",-0.39,1.45,-0.72,-0.67,1.97,2
"ex1450",-0.32,1.72,0.83,-0.65,-0.40,2
"ex1451",0.17,0.06,-0.48,1.96,2.04,1
"ex1452",1.01,0.41,-0.38,0.53,-2.02,0
"ex1453",1.47,-1.40,0.13,-0.88,-0.29,0
"ex1454",0.30,0.59,-1.24,-1.93,-0.78,2
"ex1455",1.33,0.32,-1.12,-0.33,-0.82,1
"ex1456",-2.02,-0.71,1.16,-1.42,0.79,0
"ex1457",-0.58,-1.72,1.03,-0.85,-0.79,2
"ex1458",1.18,0.24,0.76,1.01,0.08,0
"ex1459",0.03,1.49,-0.05,-0.16,-0.36,0
"ex1460",1.24,-0.42,0.23,-0.43,0.30,2
"ex1461",-1.13,-0.00,-0.98,0.89,-1.26,1
"ex1462",-2.71,-1.74,-1.04,-0.11,1.41,1
"ex1463",-1.34,-0.20,0.71,1.19,0.92,0
"ex1464",0.78,-0.82,0.52,1.20,-0.26,0
"ex1465",-0.96,0.61,-0.67,1.37,-0.98,0
"ex1466",0.83,-1.22,-0.57,1.67,-0.03,1
"ex1467",-0.47,0.45,-1.35,0.71,-0.16,0
"ex1468",2.28,0.53,-1.19,0.00,-0.10,1
"ex1469",-1.55,0.28,0.22,0.61,1.96,2
"ex1470",-1.71,-0.11,1.72,0.75,0.87,0
"ex1471",1.02,1.08,-0.55,-0.09,0.05,0
"ex1472",0.75,-0.62,-0.04,-0.57,0.28,0
"ex1473",-0.16,0.27,-0.36,0.93,0.22,0
"ex1474",-0.02,-0.48,0.43,0.50,1.41,2
"ex1475",-0.57,0.67,1.43,0.64,1.06,0
"ex1476",-0.32,1.59,-1.03,0.48,-1.14,0
"ex1477",1.28,0.79,-0.05,-1.22,0.06,0
"ex1478",1.06,0.07,0.33,0.98,-0.42,2
"ex1479",-0.76,0.51,-0.66,0.43,0.52,0
"ex1480",2.25,-0.36,-0.84,0.00,0.68,1
"ex1481",-2.16,0.84,0.21,1.02,0.72,1
"ex1482",0.93,0.05,0.76,0.45,-1.76,0
"ex1483",-0.79,0.39,-0.59,0.45,0.72,0
"ex1484",0.80,0.66,-0.19,1.13,0.54,0
"ex1485",-0.46,1.29,-2.30,0.32,0.73,1
"ex1486",-1.63,-0.48,0.71,-2.39,-0.07,0
"ex1487",0.77,-0.95,0.50,0.07,-0.68,2
"ex1488",1.35,1.40,-0.44,-0.60,0.41,1
"ex1489",-0.44,1.50,0.97,-0.26,-0.10,1
"ex1490",-0.98,0.08,1.76,3.01,0.13,2
"ex1491",-0.23,-0.29,1.48,-0.39,0.88,0
"ex1492",-0.08,-0.54,-1.02,0.09,0.76,1
"ex1493",0.03,-0.44,0.98,-0.13,-0.72,0
"ex1494",0.67,-0.30,-0.10,-1.07,0.44,2
"ex1495",0.17,-1.79,-1.09,0.24,0.19,2
"ex1496",0.09,1.17,1.01,0.96,0.43,2
"ex1497",-0.49,-1.14,0.06,-0.24,1.65,0
"ex1498",-0.33,0.43,-1.47,-0.59,0.44,0
"ex1499",0.45,-0.13,-0.93,-1.48,-1.09,2
"ex1500",-0.99,-0.60,-1.48,0.44,-0.19,2
"ex1501",-1.07,1.60,-1.17,-0.69,1.56,2
"ex1502",0.16,0.78,-0.47,0.24,1.20,0
"ex1503",-1.10,0.10,0.33,1.38,0.17,1
"ex1504",-0.37,0.46,-0.78,1.34,0.27,0
"ex1505",-0.29,-2.58,0.17,-0.57,-2.57,2
"ex1506",0.91,0.61,-0.11,0.30,-1.27,2
"ex1507",-0.49,0.96,0.83,0.32,-0.26,1
"ex1508",-1.27,1.14,-0.27,0.68,-0.72,1
"ex1509",-0.28,-1.18,0.07,-0.90,-0.23,0
"ex1510",0.27,-1.38,-0.15,-0.75,0.21,1
"ex1511",0.10,-0.17,0.53,-1.85,0.32,0
"ex1512",-0.37,-0.69,-0.19,0.64,0.88,0
"ex1513",-0.05,0.50,-0.31,1.67,1.25,1
"ex1514",-0.35,-1.86,1.81,0.33,-1.58,1
"ex1515",-1.17,-1.75,-1.38,-0.49,0.61,1
"ex1516",-1.85,0.75,1.05,0.71,-0.54,1
"ex1517",1.53,0.59,-0.79,1.54,0.42,0
"ex1518",-0.01,-0.40,-0.19,-0.28,0.58,1
"ex1519",-0.44,1.70,-0.26,2.29,0.37,0
"ex1520",-1.95,-1.97,1.56,-1.64,-1.18,1
"ex1521",-2.02,0.87,1.09,0.97,-0.27,2
"ex1522",-0.31,-0.29,1.63,-0.22,-0.70,2
"ex1523",-0.23,-1.49,0.92,1.45,0.78,1
"ex1524",-0.87,-0.98,0.44,-0.91,-0.90,1
"ex1525",1.73,-1.12,1.04,0.46,-0.76,0
"ex1526",-0.38,-1.17,-0.33,1.63,0.69,1
"ex1527",0.16,1.09,-0.67,-0.43,-2.01,0
"ex1528",-0.36,1.61,0.64,-1.42,1.08,0
"ex1529",1.56,-0.06,-0.16,1.02,0.74,2
"ex1530",0.60,-1.26,-0.66,0.21,1.11,0
"ex1531",2.00,-0.21,-0.53,0.71,0.54,1
"ex1532",-0.46,0.60,0.17,3.27,2.20,0
"ex1533",-1.12,-0.78,0.23,-1.48,-1.23,2
"ex1534",0.77,-0.05,1.16,-0.66,0.38,0
"ex1535",0.81,-0.25,-0.53,-1.25,0.40,2
"ex1536",1.02,-0.13,-0.53,0.14,1.12,2
"ex1537",0.42,-0.46,-2.36,-0.22,0.83,2
"ex1538",0.73,2.48,-0.72,-0.69,0.36,2
"ex1539",-1.14,-1.40,-0.52,0.28,-1.05,2
"ex1540",0.42,0.38,0.76,0.51,-0.56,0
"ex1541",0.34,-0.37,-1.28,-0.56,1.01,1
"ex1542",1.29,2.03,-1.70,-0.95,1.06,2
"ex1543",-1.51,-0.48,-1.43,1.07,1.52,1
"ex1544",-0.06,-0.09,0.22,0.56,-0.04,1
"ex1545",-1.20,-0.07,2.65,-0.13,0.66,2
"ex1546",-0.33,-0.34,0.64,-2.91,0.75,1
"ex1547",0.42,0.15,-1.20,0.75,-0.69,0
"ex1548",1.68,0.30,-2.13,-0.68,-0.95,0
"ex1549",-1.06,-0.21,0.11,2.79,-0.13,0
"ex1550",-0.44,0.46,-0.07,-1.65,-0.42,2
"ex1551",1.55,1.07,0.31,0.33,0.72,0
"ex1552",0.64,-0.18,-1.39,-0.58,0.08,1
"ex1553",0.61,0.10,-0.50,-0.32,-0.29,2
"ex1554",1.31,-1.84,-1.20,1.82,1.90,1
"ex1555",1.21,1.04,0.07,-1.76,0.40,1
"ex1556",-0.16,0.90,0.03,-1.07,-0.77,1
"ex1557",1.00,0.76,0.20,-0.33,-0.14,1
"ex1558",-0.90,-1.08,-0.65,0.67,0.14,1
"ex1559",-0.09,0.75,-0.06,1.81,0.10,1
"ex1560",0.32,-0.58,0.71,-0.01,-0.38,0
"ex1561",-0.18,0.40,-0.37,-1.20,2.41,2
"ex1562",-0.74,-0.51,-0.79,0.65,-0.13,0
"ex1563",0.25,-0.12,0.96,0.55,0.04,2
"ex1564",1.03,1.48,2.36,-0.35,0.05,2
"ex1565",-0.25,-0.51,-0.34,-1.40,1.06,0
"ex1566",-1.45,-0.19,-2.51,0.33,-0.09,1
"ex1567",-0.87,-0.49,0.45,1.36,-1.02,1
"ex1568",0.31,-0.11,-1.32,-1.33,0.76,1
"ex1569",0.37,-0.15,-1.60,-1.36,-0.43,0
"ex1570",0.56,2.29,-0.30,-0.15,1.32,2
"ex1571",-1.24,-0.34,0.86,0.18,-0.05,2
"ex1572",-0.17,-1.05,0.45,-0.28,0.39,2
"ex1573",-2.73,-0.32,0.19,-0.54,-0.84,1
"ex1574",-1.19,-1.35,0.88,0.12,0.07,0
"ex1575",-0.92,-0.76,0.67,-2.15,-2.73,0
"ex1576",0.60,1.21,-1.57,-0.53,-1.08,1
"ex1577",-0.52,-2.15,0.89,-0.81,0.48,1
"ex1578",-0.77,-0.25,-0.06,0.43,0.15,0
"ex1579",-0.80,-1.37,0.65,1.44,0.50,1
"ex1580",1.46,-1.03,-0.56,-0.83,0.54,0
"ex1581",-0.46,1.09,-0.35,0.47,-0.00,0
"ex1582",1.46,-0.85,-0.59,1.07,0.53,1
"ex1583",1.99,0.68,0.65,-0.47,2.22,1
"ex1584",-0.19,-2.34,-1.13,1.01,-0.59,2
"ex1585",0.95,-2.47,0.12,1.29,0.90,1
"ex1586",-1.20,-0.39,0.98,0.07,-1.18,2
"ex1587",-0.79,0.28,-0.18,0.16,0.83,2
"ex1588",0.19,-1.14,-1.56,-0.55,-0.65,0
"ex1589",0.10,-1.09,-0.27,-0.23,-0.59,2
"ex1590",0.31,-0.50,-0.00,-0.20,-0.14,0
"ex1591",0.35,0.37,-0.87,-0.33,0.00,0
"ex1592",0.54,0.71,-0.58,1.84,0.05,0
"ex1593",-1.02,0.09,0.43,-1.37,2.60,2
"ex1594",-0.63,-1.08,-0.47,0.33,0.80,1
"ex1595",1.40,-0.16,-1.05,0.79,1.58,2
"ex1596",-1.21,0.71,0.55,0.34,-0.26,1
"ex1597",-0.44,-1.43,0.95,-1.02,0.13,1
"ex1598",0.90,-0.04,-1.41,0.23,0.58,0
"ex1599",0.56,-1.02,-1.12,-0.81,-0.15,1
"ex1600",-1.54,0.19,2.16,-0.26,0.53,1
"ex1601",0.53,-0.75,-1.40,-0.91,2.88,1
"ex1602",-1.86,0.23,-0.60,-1.37,-0.59,2
"ex1603",0.33,0.16,0.50,-0.30,0.76,2
"ex1604",0.79,-0.70,-0.09,0.56,0.55,1
"ex1605",1.14,-1.65,-0.44,-1.40,1.03,2
"ex1606",0.32,-0.56,-1.19,-0.74,2.01,2
"ex1607",-0.66,-1.92,-1.29,-0.29,-0.83,0
"ex1608",-0.04,-0.28,-0.78,-0.34,-0.99,2
"ex1609",-0.23,-0.84,-0.82,-1.24,-1.31,1
"ex1610",-0.57,-2.45,0.12,-0.01,0.83,1
"ex1611",-1.06,-0.02,-0.40,0.38,-0.15,0
"ex1612",-0.45,-0.67,-1.68,0.02,-0.61,1
"ex1613",1.02,1.48,-1.57,1.08,-0.88,0
"ex1614",0.42,0.75,-0.80,0.50,-0.90,1
"ex1615",0.92,0.03,-1.12,1.56,0.48,2
"ex1616",-0.11,0.36,-0.11,0.28,0.60,2
"ex1617",0.50,-1.39,1.68,-0.57,-1.59,1
"ex1618",-0.29,-0.83,-0.03,1.93,-1.58,2
"ex1619",0.74,-0.78,1.24,-0.31,0.22,2
"ex1620",2.12,1.95,0.48,0.02,0.45,0
"ex1621",-0.19,-1.32,0.46,0.43,-1.34,1
"ex1622",-1.71,0.01,-0.09,0.98,0.84,2
"ex1623",-0.10,-0.38,0.73,-0.20,-0.58,1
"ex1624",2.04,-0.64,0.45,-0.36,0.63,2
"ex1625",-0.03,2.51,0.63,0.34,-1.02,0
"ex1626",-0.84,-0.03,1.64,-1.16,-0.63,0
"ex1627",-0.49,-0.71,0.32,1.13,-0.36,1
"ex1628",-0.02,-1.29,-1.29,0.49,3.14,1
"ex1629",-0.55,-0.23,-0.39,-0.99,0.20,1
"ex1630",-0.29,0.11,-0.07,-2.09,0.76,1
"ex1631",0.59,0.85,-1.70,1.13,1.23,0
"ex1632",0.09,0.48,-0.40,-0.40,-2.02,0
"ex1633",-0.78,0.15,-0.10,0.18,-0.99,0
"ex1634",-1.30,0.44,-0.58,-1.63,-1.14,1
"ex1635",-1.52,0.13,-0.44,1.38,-0.24,1
"ex1636",-1.32,0.87,0.04,0.09,0.95,1
"ex1637",0.30,-0.66,0.63,0.06,-0.95,2
"ex1638",0.85,-0.13,-0.42,-1.30,0.20,2
"ex1639",0.43,0.27,-0.00,0.98,1.33,1
"ex1640",-1.19,1.05,-0.15,0.85,1.39,0
"ex1641",0.89,1.28,0.12,-2.05,-0.40,0
"ex1642",1.53,-1.53,-0.44,-0.34,1.07,2
"ex1643",0.98,0.41,-0.55,0.89,1.12,1
"ex1644",0.07,0.81,0.42,-1.84,-0.67,2
"ex1645",-1.36,-0.00,2.79,-0.21,1.24,2
"ex1646",1.33,-0.57,0.40,-0.18,-0.98,2
"ex1647",1.01,-2.26,-0.97,-0.35,-0.74,2
"ex1648",-0.79,-0.86,-0.15,-0.10,-0.65,2
"ex1649",0.52,0.36,1.30,-0.25,-0.04,2
"ex1650",-1.35,-0.06,-0.14,-0.92,-0.98,2
"ex1651",1.48,0.14,-0.53,-0.37,-0.25,0
"ex1652",-1.78,-0.74,0.71,0.41,1.01,0
"ex1653",1.15,0.04,0.84,-2.27,-0.64,1
"ex1654",0.92,0.26,0.08,1.13,2.33,1
"ex1655",-0.51,0.74,0.21,2.51,-0.66,1
"ex1656",0.92,0.39,-0.47,0.13,-0.31,1
"ex1657",0.86,1.31,1.56,0.33,1.00,1
"ex1658",-0.21,-0.77,-0.06,-1.32,-0.67,2
"ex1659",-1.05,0.63,0.35,0.98,-1.07,1
"ex1660",-0.36,0.89,0.09,-0.25,0.51,2
"ex1661",0.41,-0.91,-0.52,2.08,-0.51,0
"ex1662",-1.02,-0.07,0.15,0.78,-2.10,0
"ex1663",0.26,-1.14,0.81,0.75,1.16,1
"ex1664",-0.20,0.40,0.12,0.89,-1.23,0
"ex1665",0.15,-0.49,0.18,-1.12,-0.86,1
"ex1666",-0.57,-1.25,0.77,-0.78,0.96,2
"ex1667",0.81,-0.82,-1.30,-1.63,0.66,0
"ex1668",0.63,0.59,-0.80,0.64,-0.28,0
"ex1669",0.29,1.10,-0.97,-0.02,0.09,1
"ex1670",-2.00,-0.12,1.02,-2.07,0.54,0
"ex1671",0.81,0.96,-0.46,-0.68,-0.01,1
"ex1672",-2.40,-1.06,-1.27,-0.07,0.80,1
"ex1673",1.23,2.34,-0.80,0.92,0.90,1
"ex1674",0.14,-0.14,-0.86,-1.01,-1.20,1
"ex1675",0.42,-0.11,1.77,-0.53,-0.38,0
"ex1676",1.32,0.38,0.03,0.39,-2.28,1
"ex1677",-0.19,-0.15,0.14,-0.78,2.17,2
"ex1678",-1.72,0.25,2.14,1.55,-2.27,0
"ex1679",-0.19,-1.13,-0.78,-0.09,-2.72,1
"ex1680",-1.46,0.13,-0.11,-0.63,-0.69,2
"ex1681",-0.76,0.15,0.74,-1.16,-0.07,1
"ex1682",0.26,-1.73,-1.41,-2.03,0.88,0
"ex1683",-1.50,-0.02,-2.04,-0.34,0.28,1
"ex1684",-1.22,0.74,0.43,0.33,-1.07,0
"ex1685",-0.64,-0.57,-1.10,-0.45,-0.96,0
"ex1686",-0.44,-0.05,-1.44,-0.25,-0.26,2
"ex1687",0.13,0.75,-2.22,1.80,0.84,0
"ex1688",0.26,0.89,0.22,-0.20,0.91,0
"ex1689",-0.04,-1.07,0.41,1.70,-0.16,0
"ex1690",-0.57,-0.79,-0.58,-0.21,-1.16,1
"ex1691",0.86,0.85,0.15,0.14,0.43,1
"ex1692",-1.33,0.77,-0.27,0.38,1.11,1
"ex1693",0.87,-0.63,-1.53,-0.03,-1.24,0
"ex1694",-0.01,-1.05,0.58,0.70,0.90,1
"ex1695",0.60,-2.52,0.66,0.82,0.77,1
"ex1696",-1.33,-0.34,1.87,0.45,-0.41,2
"ex1697",-1.24,-0.35,0.81,0.63,-0.05,0
"ex1698",1.84,0.74,-1.06,-0.12,0.73,1
"ex1699",-0.91,-0.27,-0.34,0.42,-0.96,0
"ex1700",-1.36,1.08,1.41,-0.87,0.73,0
"ex1701",-0.71,0.69,-2.96,1.12,-0.45,2
"ex1702",0.42,-0.96,-2.09,1.14,0.62,2
"ex1703",-2.71,0.20,1.64,-0.01,-0.41,0
"ex1704",0.07,-1.06,0.19,-0.66,-1.06,1
"ex1705",-2.15,-0.40,0.19,-0.28,1.16,2
"ex1706",0.04,-2.04,0.06,0.63,1.62,0
"ex1707",2.73,0.71,0.61,1.96,-0.64,0
"ex1708",0.98,0.51,1.93,-0.69,1.49,1
"ex1709",-0.74,0.34,-1.21,-1.06,1.01,2
"ex1710",-0.15,0.25,0.17,-1.27,-1.25,0
"ex1711",1.51,0.64,0.43,-1.18,-0.31,2
"ex1712",-0.25,0.21,1.17,1.27,-1.52,0
"ex1713",0.35,0.56,1.48,-0.44,-0.26,0
"ex1714",-0.52,0.76,0.74,-0.32,-0.32,2
"ex1715",0.14,1.29,-0.17,-0.54,0.23,0
"ex1716",0.21,-0.07,0.75,-0.56,1.57,0
"ex1717",1.79,-0.62,-1.54,-0.04,-0.91,2
"ex1718",1.59,-2.57,-0.07,-0.53,-0.28,1
"ex1719",0.18,-0.72,-0.18,-0.82,-0.56,0
"ex1720",0.54,0.30,1.07,0.98,-0.16,0
"ex1721",1.29,0.21,-0.63,-0.05,-0.50,2
"ex1722",-0.91,-0.40,0.61,1.90,-0.65,2
"ex1723",0.41,-0.48,0.73,1.34,-0.50,1
"ex1724",-1.53,1.16,-1.66,-0.51,1.18,2
"ex1725",-1.21,0.08,-2.43,0.13,-0.35,2
"ex1726",0.81,-0.14,-0.46,0.93,0.12,0
"ex1727",-0.08,-0.48,-0.58,0.85,1.85,2
"ex1728",1.43,0.49,2.16,0.84,-1.34,1
"ex1729",-0.73,0.22,-0.03,-0.63,-0.28,2
"ex1730",0.06,0.10,0.68,0.35,-0.51,2
"ex1731",0.28,2.85,0.04,0.31,-1.62,0
"ex1732",0.05,-1.32,-2.02,0.75,-0.43,0
"ex1733",1.08,0.85,0.29,0.06,1.33,1
"ex1734",-1.31,-0.07,-0.74,0.09,-1.78,2
"ex1735",0.46,0.60,0.68,-0.12,0.90,2
"ex1736",-1.62,0.60,-0.72,-2.00,-0.35,0
"ex1737",0.16,1.00,-2.17,0.24,1.32,0
"ex1738",-0.86,0.45,0.49,2.10,0.60,0
"ex1739",-0.79,-0.13,1.89,0.59,1.97,2
"ex1740",0.51,0.87,-0.21,0.48,-0.29,2
"ex1741",1.18,1.63,-1.74,-1.48,1.00,2
"ex1742",-0.07,-1.00,0.79,0.80,0.91,0
"ex1743",0.67,0.57,1.19,-0.84,0.60,1
"ex1744",0.20,-0.98,-1.39,-0.72,-1.35,1
"ex1745",-0.47,1.90,0.70,1.25,0.34,0
"ex1746",0.15,0.13,1.22,-1.23,-0.74,0
"ex1747",0.74,0.43,1.37,-2.50,0.59,0
"ex1748",0.93,-0.82,-0.10,0.03,0.30,2
"ex1749",-0.38,-0.40,1.67,-0.37,0.46,0
"ex1750",-1.75,-1.57,-1.33,-0.14,-0.39,1
"ex1751",0.64,-1.84,-0.81,0.24,-1.31,1
"ex1752",-0.01,1.58,0.00,0.45,0.25,1
"ex1753",-0.19,-1.27,-1.13,-1.38,0.99,0
"ex1754",-0.05,-0.03,-0.83,0.33,-1.94,2
"ex1755",-1.37,-1.05,0.35,0.74,-0.15,1
"ex1756",0.38,1.96,1.15,-0.70,-1.18,1
"ex1757",1.67,1.10,0.03,-1.60,-0.14,2
"ex1758",-0.23,-0.73,0.67,1.05,0.22,0
"ex1759",-0.84,1.45,0.74,0.46,0.91,2
"ex1760",-0.55,-0.01,1.86,-1.48,0.62,1
"ex1761",-0.49,1.05,-1.75,0.21,-0.53,1
"ex1762",-0.45,-0.55,2.01,0.38,0.93,0
"ex1763",-0.11,1.22,1.41,0.87,0.74,0
"ex1764",-0.22,-0.53,1.21,-0.36,-0.08,0
"ex1765",1.08,1.17,-0.31,-0.43,0.42,1
"ex1766",0.52,-0.70,1.06,1.17,2.48,2
"ex1767",-0.89,-1.06,-1.26,2.44,-0.53,1
"ex1768",1.72,0.71,-0.11,0.39,0.91,0
"ex1769",1.34,-0.38,1.30,-0.49,-0.58,2
"ex1770",1.76,-0.61,-1.51,0.74,0.95,0
"ex1771",0.50,-0.27,-1.57,-0.22,1.12,2
"ex1772",1.04,1.09,-0.77,1.00,0.67,1
"ex1773",0.68,-0.63,0.57,1.11,-0.38,2
"ex1774",0.05,-1.04,-2.31,1.16,0.07,1
"ex1775",-0.69,1.50,-0.69,0.22,-0.19,0
"ex1776",2.10,-0.95,-0.15,-1.01,0.51,1
"ex1777",0.36,-0.79,0.33,0.50,0.14,2
"ex1778",0.67,-0.70,0.89,-1.24,0.69,1
"ex1779",-1.34,0.40,0.98,-0.30,-0.32,1
"ex1780",-0.81,1.04,-1.28,-0.94,0.13,1
"ex1781",0.86,-0.28,-0.90,0.92,-1.83,1
"ex1782",2.41,0.03,-0.48,0.54,0.37,0
"ex1783",-0.17,-1.73,0.61,-2.55,0.24,1
"ex1784",-0.37,0.42,1.26,0.90,0.50,1
"ex1785",-0.16,0.18,0.34,0.35,-0.26,1
"ex1786",0.15,0.04,-1.45,-0.63,0.86,2
"ex1787",-0.11,-0.94,0.09,-2.33,-0.16,1
"ex1788",-0.76,1.67,-0.68,-0.41,1.67,2
"ex1789",0.52,-1.11,1.62,1.11,0.61,0
"ex1790",0.61,-0.27,-0.34,0.58,-0.50,0
"ex1791",-0.51,0.58,0.24,-0.55,0.55,2
"ex1792",0.18,0.44,-0.53,-0.36,0.37,1
"ex1793",0.59,-1.72,0.93,0.19,0.20,0
"ex1794",0.68,1.25,-0.86,-0.38,0.51,2
"ex1795",-1.33,1.60,1.68,-1.33,0.53,0
"ex1796",-1.10,-0.38,1.25,0.92,0.10,1
"ex1797",0.28,1.09,0.44,-0.94,1.79,1
"ex1798",1.01,-0.38,-0.61,0.77,1.96,1
"ex1799",1.32,0.56,-0.30,2.42,-0.99,0
"ex1800",0.30,-1.13,0.30,-2.05,1.21,1
"ex1801",-0.18,0.68,0.29,-0.20,-0.33,2
"ex1802",-0.86,0.51,-1.94,1.94,0.33,0
"ex1803",0.85,-0.08,-0.33,1.42,-0.48,1
"ex1804",0.48,0.62,0.70,0.24,-0.26,2
"ex1805",-0.79,-0.11,0.02,-0.22,0.69,2
"ex1806",1.69,-0.13,0.30,-0.70,0.27,0
"ex1807",0.83,-0.62,-1.15,-1.03,1.03,0
"ex1808",2.11,-0.06,-0.44,0.08,-0.66,0
"ex1809",2.06,-0.47,1.39,0.24,0.10,2
"ex1810",-0.67,0.61,1.39,-0.71,-0.47,0
"ex1811",1.21,0.66,0.18,-0.54,1.43,0
"ex1812",-1.20,-0.58,-1.50,-1.02,-1.23,2
"ex1813",0.51,-0.58,-1.13,0.69,0.31,2
"ex1814",-0.93,-0.69,0.04,1.79,0.40,1
"ex1815",-1.93,-1.10,-0.36,-0.49,-0.97,0
"ex1816",0.41,0.38,-0.21,-1.14,-1.40,0
"ex1817",-0.50,1.13,-1.05,-2.06,-0.35,0
"ex1818",0.80,-0.52,0.58,0.69,1.89,1
"ex1819",-1.04,-0.62,1.04,0.02,0.45,1
"ex1820",-0.99,0.48,0.11,-0.07,0.70,1
"ex1821",0.60,-0.79,0.50,1.11,0.23,2
"ex1822",-1.16,0.84,0.15,-0.52,-1.36,2
"ex1823",-1.04,0.16,-1.14,0.06,-2.25,0
"ex1824",-1.09,-1.41,-0.41,0.10,-0.85,1
"ex1825",0.98,-1.91,-0.80,-1.22,0.28,2
"ex1826",-0.94,-0.74,0.77,0.33,-0.54,0
"ex1827",1.24,-1.77,2.32,-0.38,-0.79,1
"ex1828",-1.49,-1.15,-0.21,-1.83,1.46,0
"ex1829",-0.04,0.32,1.09,1.40,-0.90,1
"ex1830",1.33,0.46,1.03,-1.21,-0.36,2
"ex1831",-0.79,-0.52,1.76,-0.45,0.78,2
"ex1832",-0.24,0.54,-1.35,3.00,1.57,0
"ex1833",-0.01,1.38,0.06,0.82,0.13,1
"ex1834",-0.62,0.91,1.63,-0.08,0.01,1
"ex1835",1.41,0.13,-0.59,-1.15,0.49,0
"ex1836",0.18,-0.55,-0.24,0.93,0.54,1
"ex1837",0.39,-0.27,0.84,0.21,-0.20,1
"ex1838",-1.03,1.49,2.13,0.70,-0.18,0
"ex1839",0.77,0.24,1.28,0.73,-0.32,0
"ex1840",1.71,1.74,-1.14,-0.71,-1.05,2
"ex1841",0.56,-1.01,3.34,-0.04,1.76,1
"ex1842",-0.16,1.18,0.19,-0.30,-0.52,2
"ex1843",0.09,0.88,0.00,0.31,0.66,2
"ex1844",1.38,-0.33,0.63,-0.46,0.44,0
"ex1845",-0.25,1.21,-0.98,-1.89,0.91,2
"ex1846",1.82,-1.13,-1.51,-1.34,0.69,1
"ex1847",1.25,-0.88,-0.05,-0.27,-0.91,2
"ex1848",0.77,0.77,-0.17,-0.02,-1.06,0
"ex1849",-0.22,1.13,-1.67,-1.27,-1.24,0
"ex1850",0.12,0.61,0.03,1.94,1.26,2
"ex1851",0.09,-0.50,1.63,-1.10,0.07,2
"ex1852",0.99,-1.73,-1.10,0.03,1.34,2
"ex1853",-0.22,2.06,-1.17,1.45,-0.24,0
"ex1854",1.82,-0.45,0.50,-0.08,-0.53,0
"ex1855",-1.22,-0.42,0.64,-0.69,-1.26,1
"ex1856",-0.35,0.26,-0.04,-0.03,0.74,1
"ex1857",-1.92,0.48,0.20,-1.48,0.72,0
"ex1858",1.83,-0.96,-1.25,-0.37,-2.88,2
"ex1859",-0.73,-1.69,-0.24,-0.10,0.49,0
"ex1860",0.21,-0.01,0.95,1.15,-2.48,0
"ex1861",1.09,-1.68,-0.43,-0.14,0.53,0
"ex1862",-0.62,-1.35,1.81,0.68,0.04,0
"ex1863",-0.04,0.80,-0.79,1.12,0.09,0
"ex1864",0.52,-0.36,-0.68,-0.09,-0.36,1
"ex1865",-0.04,0.58,-2.33,-0.51,-0.83,0
"ex1866",0.14,0.04,-0.82,-1.12,0.93,1
"ex1867",-0.19,0.05,-1.00,1.26,-0.34,0
"ex1868",1.20,-0.21,0.09,-0.27,-1.69,1
"ex1869",-0.18,1.72,1.75,-0.67,0.60,1
"ex1870",-0.03,-0.07,-0.05,-0.53,-0.33,1
"ex1871",0.17,0.79,1.59,-0.49,-0.32,0
"ex1872",-0.59,-0.02,-0.82,-1.04,0.66,2
"ex1873",-0.81,0.26,-0.68,-0.74,-0.87,1
"ex1874",0.47,0.19,-0.98,-0.23,-1.45,0
"ex1875",-0.23,0.61,2.70,-0.73,-0.79,2
"ex1876",2.27,2.41,-0.04,0.14,0.28,2
"ex1877",-0.55,-1.35,0.42,0.05,3.29,1
"ex1878",0.63,-1.76,-0.41,1.77,-0.47,2
"ex1879",-0.23,-1.41,-0.09,-1.18,-2.16,2
"ex1880",-1.34,1.47,-0.45,0.76,-0.65,0
"ex1881",-1.13,-0.13,0.55,0.71,-2.44,2
"ex1882",-0.80,0.42,0.95,0.83,1.73,0
"ex1883",2.81,-0.96,-0.82,0.74,-0.32,0
"ex1884",0.34,1.31,-0.25,-0.43,0.78,2
"ex1885",-1.13,-0.50,0.28,1.41,0.12,0
"ex1886",0.34,1.04,-1.05,-1.28,-0.47,2
"ex1887",0.17,1.39,0.87,-0.44,-0.37,0
"ex1888",0.32,-1.22,-1.33,-1.40,0.64,2
"ex1889",0.45,1.22,-0.51,-0.46,-0.21,2
"ex1890",0.02,0.22,0.12,-0.25,-0.89,1
"ex1891",-0.03,1.00,0.19,-0.53,-0.01,2
"ex1892",-1.59,-0.41,0.02,-0.78,-1.04,2
"ex1893",-1.20,2.68,-0.11,0.31,1.22,1
"ex1894",-0.54,-0.09,2.65,0.19,0.95,2
"ex1895",-1.33,-1.66,0.05,-0.01,0.82,0
"ex1896",1.14,1.92,-0.08,-0.55,0.04,1
"ex1897",0.74,-1.74,-0.14,0.95,0.51,0
"ex1898",-0.16,0.41,-0.94,0.97,1.87,1
"ex1899",0.48,-0.70,-0.29,-1.22,0.59,1
"ex1900",-3.52,2.17,0.07,-0.88,0.82,2
"ex1901",1.47,-2.04,-0.34,-0.54,-1.70,1
"ex1902",-0.43,1.60,-0.03,0.64,0.88,1
"ex1903",0.09,0.58,0.34,0.41,-0.76,0
"ex1904",-0.45,1.62,1.54,-1.07,-0.19,1
"ex1905",1.02,0.08,-1.74,0.54,0.28,2
"ex1906",-0.35,0.49,-1.59,-0.86,-2.19,2
"ex1907",1.22,-0.33,-0.17,-2.35,0.54,0
"ex1908",0.54,-1.96,0.49,0.60,-0.52,0
"ex1909",0.67,0.69,-2.67,-1.25,0.10,0
"ex1910",1.10,1.04,0.59,-0.12,0.58,2
"ex1911",1.66,0.47,0.48,-0.34,-1.71,1
"ex1912",1.88,1.93,-0.07,1.10,0.83,2
"ex1913",0.95,-0.05,0.02,1.13,-0.16,0
"ex1914",-1.03,2.20,-1.72,-1.29,0.08,0
"ex1915",1.30,0.59,2.98,-0.57,0.22,2
"ex1916",1.36,-1.06,0.56,0.90,0.68,1
"ex1917",-0.67,-1.44,0.07,0.61,-0.28,1
"ex1918",0.01,-0.70,-0.53,-1.47,0.05,1
"ex1919",1.24,-0.93,0.56,0.41,-1.04,1
"ex1920",-0.53,-0.04,0.11,-0.88,-0.07,2
"ex1921",-1.04,0.03,0.70,0.66,1.60,0
"ex1922",-0.96,-0.35,-0.04,0.38,-0.75,1
"ex1923",-1.84,-0.52,1.13,0.62,-2.20,1
"ex1924",1.09,0.08,0.93,1.54,0.63,1
"ex1925",0.30,-0.38,0.27,-0.44,-1.17,2
"ex1926",-0.34,0.47,-0.48,-0.12,0.43,0
"ex1927",-0.23,1.71,-0.67,-1.38,1.52,0
"ex1928",-0.52,-0.21,-1.13,-0.37,0.78,0
"ex1929",0.61,0.68,-0.84,-0.69,-0.24,2
"ex1930",-0.58,-1.14,-0.74,-0.12,-0.49,2
"ex1931",-1.41,0.25,-0.42,0.37,-1.11,2
"ex1932",-0.55,1.12,0.68,-1.42,-0.44,1
"ex1933",0.06,-0.10,-0.27,0.21,0.69,1
"ex1934",-1.49,-0.75,-0.32,1.71,-1.19,2
"ex1935",-1.56,-0.61,-0.41,0.49,-0.52,1
"ex1936",-0.08,-0.82,0.53,-1.35,0.15,0
"ex1937",-2.98,0.91,0.68,0.82,0.23,1
"ex1938",1.04,-1.32,0.33,0.30,-0.01,0
"ex1939",-0.40,0.29,-0.89,0.92,0.24,1
"ex1940",-0.14,-0.41,0.57,0.57,-1.17,2
"ex1941",-1.07,0.73,0.15,0.40,0.88,0
"ex1942",0.59,-0.15,0.19,-0.16,-0.42,0
"ex1943",1.23,1.10,0.04,-2.28,0.36,2
"ex1944",0.81,0.79,-0.71,0.32,-1.10,1
"ex1945",1.23,0.99,0.91,-0.50,0.75,0
"ex1946",0.66,0.17,0.08,0.69,2.26,1
"ex1947",0.33,1.03,0.53,0.14,0.10,0
"ex1948",-1.57,0.35,-0.14,0.96,-0.86,0
"ex1949",-1.00,-1.02,-0.65,-0.77,-0.50,1
"ex1950",1.63,-0.30,0.05,-0.66,-0.59,0
"ex1951",-0.10,2.24,0.91,-1.27,1.05,0
"ex1952",0.70,0.24,-0.79,0.51,-0.38,1
"ex1953",0.94,-0.17,-0.47,-0.80,0.59,2
"ex1954",-0.44,-0.34,-0.56,1.83,-0.01,2
"ex1955",-0.70,-0.53,0.45,0.36,0.30,1
"ex1956",-0.32,1.58,-1.00,1.35,-1.11,0
"ex1957",0.66,2.27,-1.00,-0.14,0.76,1
"ex1958",1.07,0.28,-0.52,-0.63,-0.25,0
"ex1959",0.90,-0.29,0.78,0.01,-0.43,2
"ex1960",-0.36,0.17,0.26,0.08,0.09,1
"ex1961",0.63,0.60,0.41,-0.19,0.55,2
"ex1962",-0.08,0.82,0.66,1.10,-0.74,0
"ex1963",2.10,-0.10,-0.29,-0.32,1.93,1
"ex1964",-1.11,1.57,0.21,1.54,-2.02,0
"ex1965",0.21,-1.06,-0.21,2.79,-0.75,0
"ex1966",-1.51,-0.88,0.05,0.93,0.44,2
"ex1967",0.03,-0.49,-0.14,-0.62,2.01,1
"ex1968",-1.36,-1.09,1.14,1.11,0.06,0
"ex1969",-1.67,-0.41,0.69,-0.36,0.02,2
"ex1970",0.06,0.43,-0.66,0.13,1.26,1
"ex1971",-1.03,-0.43,0.33,0.12,-0.66,1
"ex1972",0.19,0.91,1.63,-0.28,-0.14,0
"ex1973",1.04,2.82,0.53,-1.64,-0.88,0
"ex1974",0.49,0.47,-0.57,0.82,0.10,2
"ex1975",0.27,0.02,-0.41,1.46,-0.90,2
"ex1976",1.48,-0.70,-2.40,1.50,0.39,0
"ex1977",0.49,-0.26,-2.13,1.62,-0.29,1
"ex1978",-0.34,-0.56,0.43,0.36,0.54,0
"ex1979",0.14,-0.21,0.49,-0.10,0.27,2
"ex1980",-0.14,-0.64,1.92,-0.66,-0.04,1
"ex1981",-0.76,-0.21,-0.95,-0.60,0.47,1
"ex1982",-0.41,-1.08,-0.90,0.07,1.87,1
"ex1983",0.37,-0.74,0.02,0.09,1.02,0
"ex1984",-0.31,-0.47,-0.05,-0.09,0.67,2
"ex1985",-1.37,0.06,-0.36,0.25,-1.17,1
"ex1986",-0.36,-0.06,-0.44,-0.73,-0.33,0
"ex1987",-0.02,0.55,-0.38,1.29,0.47,0
"ex1988",1.90,-0.12,1.19,-2.25,0.59,1
"ex1989",1.16,0.77,-0.03,0.98,-0.76,2
"ex1990",-1.08,-1.12,-0.46,1.19,-0.21,1
"ex1991",0.48,-0.79,-0.03,0.35,-0.35,2
"ex1992",-0.19,-0.53,-0.64,0.50,-1.03,2
"ex1993",-0.97,1.00,-0.88,-0.71,2.05,2
"ex1994",-0.33,0.09,-1.31,1.56,-1.32,1
"ex1995",0.74,0.54,1.32,-0.95,0.29,0
"ex1996",1.30,-1.40,-0.25,0.37,-0.68,1
"ex1997",-0.02,1.71,0.89,-0.23,1.00,1
"ex1998",0.53,0.56,-0.52,-0.78,1.01,0
"ex1999",-0.60,0.59,-0.48,-0.60,0.33,0
"ex2000",0.14,0.31,0.94,-0.39,0.51,2
"ex2001",-0.36,1.89,-0.19,-0.56,0.63,1
"ex2002",0.70,-0.58,-0.49,1.12,0.22,2
"ex2003",0.49,-0.24,-1.08,-1.55,-1.53,1
"ex2004",-0.05,-0.44,0.70,0.34,0.37,1
"ex2005",-0.68,-0.47,0.88,-0.99,-1.62,0
"ex2006",-1.10,-0.13,-0.78,-0.27,0.55,1
"ex2007",-0.08,-0.02,0.06,2.39,-1.71,0
"ex2008",0.71,-0.78,-1.03,0.43,0.56,1
"ex2009",0.24,-1.79,-0.06,0.42,0.41,0
"ex2010",-0.27,-2.07,0.94,0.32,-1.55,1
"ex2011",-1.65,-0.51,-0.42,1.12,-0.96,0
"ex2012",-0.15,1.21,0.45,1.79,2.42,2
"ex2013",0.91,0.66,0.36,0.72,1.18,1
"ex2014",-1.54,-0.27,0.44,0.71,1.85,0
"ex2015",0.93,0.75,-1.01,0.98,0.00,1
"ex2016",0.09,0.07,0.56,-0.31,-1.77,1
"ex2017",-0.53,0.42,-0.66,0.78,0.05,2
"ex2018",0.36,0.16,2.42,-0.46,-0.77,2
"ex2019",-1.00,-0.23,-0.56,-0.29,0.20,1
"ex2020",-1.95,1.51,-0.32,-1.20,1.16,2
"ex2021",-0.30,0.26,1.87,-0.29,1.02,2
"ex2022",0.24,-1.20,0.71,-0.91,-1.39,2
"ex2023",-0.29,-0.47,0.66,-0.38,-0.26,1
"ex2024",1.11,-0.03,-0.05,0.57,-2.55,0
"ex2025",-0.27,1.90,-0.95,0.18,0.24,1
"ex2026",-0.35,-0.76,0.41,0.15,-0.58,1
"ex2027",0.90,-0.82,-0.60,1.34,-0.16,2
"ex2028",1.96,-0.99,0.20,-1.46,-0.29,0
"ex2029",0.31,0.73,1.69,0.51,1.87,2
"ex2030",-0.39,0.43,-1.36,-2.23,-2.25,0
"ex2031",0.57,-0.33,-0.44,0.21,0.34,0
"ex2032",-0.69,0.07,1.50,-0.22,-0.13,0
"ex2033",-0.48,0.21,-1.09,-0.13,0.38,0
"ex2034",1.44,0.88,-0.95,-0.13,1.60,1
"ex2035",-0.45,0.53,-1.33,-0.72,-0.27,1
"ex2036",0.07,0.68,0.05,-0.48,-1.30,1
"ex2037",0.54,0.28,-0.64,1.10,0.75,0
"ex2038",-0.16,0.29,0.68,-1.22,-0.79,0
"ex2039",1.07,0.47,-0.13,-1.43,0.25,2
"ex2040",0.41,0.22,-1.70,0.52,0.53,0
"ex2041",2.23,0.33,0.18,-0.44,1.73,2
"ex2042",-0.85,0.35,-0.29,0.24,-0.19,2
"ex2043",-0.03,-0.28,-2.06,0.41,0.24,0
"ex2044",-0.18,-0.28,1.41,0.95,-1.29,1
"ex2045",-0.47,-2.39,-1.68,0.16,-0.58,2
"ex2046",-0.05,-2.08,-0.38,0.97,0.38,1
"ex2047",-0.33,-0.01,-1.10,1.16,-0.86,0
"ex2048",0.26,-1.27,-0.56,-0.49,0.25,1
"ex2049",0.99,0.59,-0.31,0.35,-0.55,2
"ex2050",0.10,0.02,0.37,-1.24,-0.18,2
"ex2051",0.28,-0.61,1.03,1.89,0.48,2
"ex2052",1.36,-0.63,-2.74,-1.31,1.93,0
"ex2053",0.36,-0.44,2.02,1.77,-2.27,0
"ex2054",0.23,-0.16,2.19,-1.77,0.75,1
"ex2055",-0.52,0.17,1.47,0.07,0.90,2
"ex2056",-1.53,-2.49,0.36,-0.06,-0.07,0
"ex2057",0.82,2.38,1.96,-0.55,1.43,0
"ex2058",0.91,0.63,0.86,0.24,-0.97,2
"ex2059",-0.01,1.00,1.11,-0.08,0.89,1
"ex2060",0.59,-1.58,-0.02,-1.31,0.86,0
"ex2061",-0.41,-0.12,-0.78,0.61,2.23,0
"ex2062",-0.30,1.48,-0.65,-1.38,0.13,2
"ex2063",-0.81,-1.09,1.11,-1.46,-0.36,0
"ex2064",0.08,0.63,0.18,1.49,-1.01,1
"ex2065",-0.56,-1.57,-0.61,0.56,0.32,2
"ex2066",-0.25,-1.10,-0.80,-0.99,-0.40,0
"ex2067",-0.15,-1.29,1.07,1.64,0.31,0
"ex2068",-1.29,1.71,0.29,-0.49,-0.92,2
"ex2069",0.26,0.66,-0.19,-1.82,0.61,1
"ex2070",1.92,-1.54,-0.64,0.93,-0.16,0
"ex2071",-1.06,1.73,-0.04,-1.56,-0.76,2
"ex2072",3.33,-0.75,-1.53,1.32,2.26,0
"ex2073",-0.71,-1.68,0.46,0.92,0.42,0
"ex2074",-1.02,-2.22,0.57,-0.21,-0.93,0
"ex2075",-0.67,0.11,-1.21,0.54,-0.64,1
"ex2076",0.77,0.38,-1.34,0.61,-0.93,0
"ex2077",-1.25,-1.38,0.71,0.12,-0.65,0
"ex2078",1.96,1.22,0.26,0.31,-0.28,0
"ex2079",0.41,-0.59,0.92,0.08,-0.52,0
"ex2080",1.70,1.36,0.21,-1.10,0.84,1
"ex2081",-1.39,0.20,-1.23,-1.80,0.89,0
"ex2082",-0.16,-0.91,0.43,-0.08,-0.34,2
"ex2083",-0.73,-0.95,-0.21,0.08,-0.31,0
"ex2084",-2.40,-0.48,-1.04,0.94,-0.30,1
"ex2085",-2.01,0.99,1.22,-0.14,-1.29,1
"ex2086",0.02,1.94,-0.32,-0.45,1.12,2
"ex2087",0.86,0.99,-0.22,-1.81,2.38,2
"ex2088",-0.28,0.62,-1.22,1.03,1.43,2
"ex2089",0.65,0.76,2.02,-0.59,-0.39,1
"ex2090",-1.18,1.63,1.36,1.41,-1.15,2
"ex2091",-0.90,-0.04,-1.60,0.59,-1.20,0
"ex2092",0.06,0.37,0.03,0.23,1.20,2
"ex2093",-1.84,1.21,1.95,-0.29,-0.62,0
"ex2094",-0.91,-0.31,-0.90,-0.51,0.97,0
"ex2095",-1.09,1.26,-0.53,0.29,-0.88,2
"ex2096",0.82,-1.18,-1.18,0.78,-0.86,1
"ex2097",0.38,-0.63,-0.86,1.79,-1.80,0
"ex2098",0.16,-1.14,0.87,1.20,-0.99,1
"ex2099",-0.23,-0.07,0.91,-1.44,-1.16,1
"ex2100",0.16,0.92,-0.23,-0.00,-0.64,2
"ex2101",-0.48,0.25,0.46,0.12,-0.55,0
"ex2102",-1.21,0.41,-1.15,-0.23,0.66,1
"ex2103",0.54,-0.86,-2.30,0.89,-0.55,0
"ex2104",-1.01,-2.38,0.20,-0.98,1.65,1
"ex2105",0.60,-0.97,-0.95,-2.13,-1.04,1
"ex2106",0.35,-1.93,-0.86,1.82,0.48,2
"ex2107",0.55,0.36,2.35,1.19,0.11,0
"ex2108",1.13,0.08,0.14,0.09,0.25,2
"ex2109",0.12,1.02,-1.01,0.24,-0.88,2
"ex2110",1.40,1.17,0.83,2.55,0.15,0
"ex2111",-1.50,2.13,0.23,0.46,-0.86,0
"ex2112",1.88,0.98,1.92,0.61,-2.06,2
"ex2113",-0.24,-1.26,0.92,1.06,-0.10,0
"ex2114",0.54,-0.10,-0.18,-0.60,-0.24,1
"ex2115",-0.28,2.21,-0.36,1.56,-1.89,1
"ex2116",0.49,1.78,-0.90,-0.89,-0.04,1
"ex2117",1.31,-2.62,-1.42,0.54,-0.05,2
"ex2118",0.57,0.25,-0.51,1.43,0.63,2
"ex2119",-0.61,-2.35,0.19,0.68,-0.53,2
"ex2120",-0.76,0.10,-0.62,0.55,0.64,0
"ex2121",0.29,-0.84,0.14,-0.25,-0.71,1
"ex2122",0.34,0.62,-0.36,-0.22,0.08,2
"ex2123",-0.66,-2.54,-0.78,0.11,0.59,0
"ex2124",0.67,0.83,-2.09,-0.18,2.78,2
"ex2125",-1.48,1.61,0.26,0.10,-0.88,0
"ex2126",-1.20,1.18,-0.70,0.13,-0.72,2
"ex2127",1.12,0.05,2.78,-1.38,-0.02,1
"ex2128",-0.24,0.13,1.59,0.98,1.57,1
"ex2129",0.76,-1.40,-0.56,-1.47,-0.65,1
"ex2130",0.79,0.42,-0.44,-0.02,0.74,1
"ex2131",0.26,0.52,-0.40,-0.03,-0.61,0
"ex2132",-0.53,-0.77,-0.58,0.68,0.59,0
"ex2133",-0.79,-1.71,-0.27,-0.59,0.99,1
"ex2134",-0.72,-0.57,0.56,0.63,0.04,2
"ex2135",1.39,-0.62,-0.26,-0.79,-0.92,1
"ex2136",0.02,0.88,1.93,-0.40,1.77,0
"ex2137",0.93,1.10,-0.18,0.80,0.81,2
"ex2138",-1.94,0.13,-0.85,-1.18,-0.43,2
"ex2139",-0.71,0.15,-1.90,-1.50,0.91,2
"ex2140",-1.43,1.41,0.51,-1.13,0.66,0
"ex2141",-2.03,-0.95,0.28,0.20,-0.14,2
"ex2142",0.49,1.11,-0.48,0.96,0.10,0
"ex2143",1.84,-0.01,0.90,-0.88,-0.66,2
"ex2144",-2.05,0.67,0.96,1.79,0.34,1
"ex2145",-0.90,-0.92,1.22,1.88,0.27,1
"ex2146",0.59,-0.78,-0.50,-0.25,1.45,1
"ex2147",-0.09,0.23,-1.55,-1.44,-2.13,1
"ex2148",-0.46,-1.39,-0.03,-1.66,0.39,1
"ex2149",0.43,0.52,1.40,0.31,0.09,2
"ex2150",0.24,-0.87,-1.05,0.53,0.70,1
"ex2151",-1.47,1.67,0.78,0.14,-1.22,1
"ex2152",1.51,-0.51,-0.02,1.47,-0.55,0
"ex2153",0.78,-1.07,-1.39,0.10,1.94,2
"ex2154",0.64,1.84,0.03,1.61,0.71,1
"ex2155",-1.37,-0.56,0.60,0.87,-2.41,0
"ex2156",0.76,-0.28,-0.30,-0.02,0.05,1
"ex2157",0.93,0.01,-0.06,-1.47,-1.14,1
"ex2158",0.16,-0.47,0.88,0.52,-1.10,2
"ex2159",0.78,1.22,-0.41,-0.37,0.38,0
"ex2160",0.64,1.35,-0.18,1.90,0.73,2
"ex2161",-1.67,-0.31,1.42,1.35,0.44,2
"ex2162",-0.15,0.28,-0.99,1.08,0.12,1
"ex2163",-0.25,0.38,0.88,-1.53,-0.15,1
"ex2164",0.47,-1.88,0.27,1.57,1.54,1
"ex2165",0.46,1.72,1.65,-1.29,0.65,2
"ex2166",0.56,0.87,-0.24,0.47,-1.13,1
"ex2167",-1.03,-1.65,-1.96,-1.09,-0.64,1
"ex2168",-0.19,0.01,0.30,-0.46,-0.26,0
"ex2169",1.33,-2.15,0.91,-2.31,1.77,1
"ex2170",0.50,-0.09,-1.28,0.68,-0.03,1
"ex2171",-0.79,-0.95,0.26,-1.12,-0.10,2
"ex2172",0.74,0.49,1.17,-0.31,2.28,2
"ex2173",1.29,1.49,-0.00,-0.32,-0.24,0
"ex2174",0.41,0.59,0.07,-2.38,0.52,0
"ex2175",0.63,0.48,1.14,1.58,1.03,1
"ex2176",-0.05,0.06,0.08,0.57,-2.14,0
"ex2177",0.81,0.45,0.48,-0.66,0.31,2
"ex2178",1.08,-0.44,0.47,0.61,-0.52,1
"ex2179",0.95,1.06,1.22,0.88,0.56,0
"ex2180",-0.55,0.12,-0.18,-0.56,-0.65,2
"ex2181",0.45,0.84,0.79,-1.50,0.34,2
"ex2182",0.04,0.31,-0.59,0.09,-0.51,2
"ex2183",0.21,0.11,-0.20,-0.47,0.86,2
"ex2184",1.28,1.28,-1.04,-0.29,1.70,2
"ex2185",0.32,-0.07,1.50,0.16,1.44,0
"ex2186",0.88,0.06,0.69,-0.26,-0.88,0
"ex2187",-1.65,-0.84,1.71,-0.27,-0.39,1
"ex2188",2.07,-0.53,2.08,0.39,0.94,0
"ex2189",0.45,-0.16,1.94,1.03,-0.12,0
"ex2190",1.27,0.16,-0.64,0.31,1.30,0
"ex2191",-0.68,1.13,0.54,-0.50,-1.91,2
"ex2192",-0.95,-1.48,1.56,-1.54,-1.64,2
"ex2193",0.97,-1.77,-0.06,-0.36,0.36,1
"ex2194",1.31,1.06,0.44,1.10,1.09,0
"ex2195",-0.93,-0.84,0.23,0.46,-2.43,0
"ex2196",-1.41,-1.16,0.70,1.62,-0.58,0
"ex2197",-1.41,-0.79,0.59,1.21,-0.30,2
"ex2198",1.42,-1.22,0.18,-1.16,1.69,2
"ex2199",0.79,-0.21,-0.63,-0.11,1.36,1
"ex2200",-0.57,1.87,1.19,1.99,0.34,0
"ex2201",-0.38,-0.01,0.59,0.15,-1.78,0
"ex2202",-2.25,0.35,-0.60,0.64,0.08,2
"ex2203",-2.28,-0.38,-1.37,1.68,1.00,1
"ex2204",-0.44,0.55,-0.04,-0.98,0.53,1
"ex2205",0.16,-2.62,-0.85,1.05,-0.15,2
"ex2206",-0.83,-0.45,0.87,-0.26,-0.21,2
"ex2207",0.66,-0.18,-1.10,0.88,-0.37,0
"ex2208",0.61,-1.82,-0.12,1.10,0.11,0
"ex2209",0.26,-0.09,0.22,0.21,1.23,0
"ex2210",-0.01,0.45,1.40,-1.13,1.31,1
"ex2211",1.08,0.42,-0.77,-2.06,-0.01,1
"ex2212",1.85,-0.71,-0.29,0.77,0.46,2
"ex2213",-0.49,-0.91,-1.58,1.39,-1.02,2
"ex2214",1.06,0.72,-1.44,-0.52,0.68,0
"ex2215",-0.90,0.40,1.06,1.37,0.70,1
"ex2216",-0.01,-0.84,0.30,1.70,-1.24,0
"ex2217",0.03,-1.50,-0.04,-0.37,-0.08,2
"ex2218",-0.77,-0.58,-0.11,0.36,-0.88,0
"ex2219",0.06,0.30,-0.57,-0.95,-1.20,2
"ex2220",0.63,-0.26,-0.88,0.77,-0.55,1
"ex2221",2.55,0.30,-0.09,0.67,0.11,0
"ex2222",-0.01,-0.02,1.85,-0.86,1.38,2
"ex2223",0.38,-0.40,-0.09,0.88,-2.38,2
"ex2224",-1.42,1.30,1.08,2.12,-0.98,0
"ex2225",0.03,1.48,-0.47,-0.55,0.12,2
"ex2226",0.14,-0.62,-0.73,-0.31,-1.30,2
"ex2227",-0.52,-0.75,-1.50,-0.84,-0.39,1
"ex2228",1.16,-0.31,-1.20,0.37,-1.15,2
"ex2229",0.82,0.49,-1.37,0.04,-1.14,2
"ex2230",-0.71,-1.51,0.22,1.51,-0.33,2
"ex2231",-0.86,-0.69,-0.02,-1.66,0.02,2
"ex2232",-0.10,-1.42,-1.03,-0.92,-1.69,2
"ex2233",0.08,-0.93,0.03,-0.49,-0.27,1
"ex2234",-0.36,1.58,-1.30,1.69,0.98,1
"ex2235",-2.64,2.07,1.05,-0.24,-0.41,0
"ex2236",-1.14,1.07,1.22,-0.37,-0.63,2
"ex2237",-0.29,-0.63,-1.43,1.25,1.47,1
"ex2238",0.52,0.12,0.09,1.15,-1.48,2
"ex2239",-0.31,0.26,2.09,0.44,-1.02,1
"ex2240",-1.09,-1.00,1.81,-0.59,0.22,2
"ex2241",2.38,-0.19,1.89,0.98,0.78,0
"ex2242",-2.76,-1.17,-0.25,-0.06,-1.21,0
"ex2243",1.46,1.17,-0.18,0.20,0.63,2
"ex2244",0.60,-1.98,0.63,-0.26,-0.55,1
"ex2245",1.63,0.58,-1.26,-1.67,-0.07,2
"ex2246",2.37,-0.00,1.33,1.16,-0.06,1
"ex2247",-0.69,-0.96,-0.08,-0.77,-0.41,1
"ex2248",-1.29,-1.38,-0.59,0.03,-1.17,1
"ex2249",0.93,0.85,-1.24,0.79,2.10,0
"ex2250",-0.39,-1.23,2.48,0.12,-1.08,1
"ex2251",1.17,-0.20,-1.37,-2.12,0.48,2
"ex2252",-0.20,0.16,-0.30,0.69,-0.55,2
"ex2253",-1.00,1.44,-0.44,0.38,0.75,2
"ex2254",0.62,2.01,-0.50,-0.54,0.12,0
"ex2255",-0.38,-0.89,2.32,0.65,1.81,0
"ex2256",0.96,-0.56,0.15,0.28,-0.04,1
"ex2257",-0.11,1.48,0.97,0.20,0.73,2
"ex2258",0.72,0.58,-0.76,-0.59,0.31,1
"ex2259",-1.00,0.27,0.27,0.03,0.97,0
"ex2260",-0.14,0.42,-1.66,1.31,1.03,1
"ex2261",-0.85,-0.65,-0.22,1.11,-0.37,2
"ex2262",-1.80,0.12,0.97,2.32,0.67,2
"ex2263",0.69,-0.23,-1.39,0.80,-0.19,2
"ex2264",-0.44,0.54,0.82,0.87,-2.53,0
"ex2265",0.91,1.50,0.16,-1.09,-0.24,2
"ex2266",-1.22,-0.64,1.58,-0.60,0.75,1
"ex2267",0.17,1.45,-0.58,-0.35,-0.45,2
"ex2268",0.10,-2.39,-0.09,0.96,-1.69,0
"ex2269",0.64,0.22,0.04,-0.33,-0.69,1
"ex2270",0.05,-0.63,-1.39,-0.48,-1.91,0
"ex2271",3.17,-1.40,0.79,-0.27,0.29,1
"ex2272",-1.39,0.74,-0.13,0.98,0.06,0
"ex2273",-0.43,-0.17,-0.81,1.18,0.45,1
"ex2274",0.70,0.12,-0.00,0.37,-0.52,0
"ex2275",-0.22,-0.29,1.25,-0.35,0.89,0
"ex2276",1.60,0.78,1.04,-2.06,-0.08,2
"ex2277",1.76,-0.56,-0.51,-0.43,1.72,0
"ex2278",-0.54,0.51,-1.01,-1.11,1.05,0
"ex2279",-1.07,1.67,0.34,-1.23,1.48,0
"ex2280",-1.42,-0.19,-0.01,1.46,-0.33,1
"ex2281",1.51,0.13,-0.91,0.61,0.98,2
"ex2282",0.17,1.21,0.65,2.70,-0.22,2
"ex2283",-0.02,-0.05,0.63,0.87,-0.16,2
"ex2284",-0.24,0.44,1.50,-0.13,-0.84,0
"ex2285",0.11,-0.74,1.53,-0.20,0.04,1
"ex2286",2.05,1.26,0.40,0.83,-0.92,0
"ex2287",0.64,-0.61,0.42,2.03,-0.61,2
"ex2288",0.88,-1.30,-0.21,0.90,-0.30,1
"ex2289",-1.70,1.38,-0.28,-1.28,0.44,1
"ex2290",1.32,-1.34,-2.02,-0.16,0.90,0
"ex2291",-1.20,-0.81,0.22,-0.03,1.01,1
"ex2292",-1.02,1.09,1.52,0.27,0.93,2
"ex2293",0.42,0.82,-1.42,0.86,-0.14,2
"ex2294",0.49,-0.18,0.46,-0.97,-0.09,1
"ex2295",0.98,0.78,-0.22,0.12,-1.85,0
"ex2296",-0.63,0.60,-0.89,0.62,1.23,2
"ex2297",0.23,0.37,-0.67,1.38,-0.13,2
"ex2298",0.36,-0.08,-0.89,0.18,0.59,0
"ex2299",-1.42,-1.49,0.66,0.54,-0.91,2
"ex2300",1.54,-1.77,0.22,-0.08,-0.19,0
"ex2301",2.77,1.01,1.22,-1.00,0.71,1
"ex2302",-1.77,-0.37,0.94,0.24,0.44,1
"ex2303",2.32,0.64,1.40,1.07,-1.22,2
"ex2304",1.53,0.66,-0.60,-0.22,0.61,1
"ex2305",-2.43,-0.35,0.46,0.25,1.52,0
"ex2306",-1.11,0.96,0.23,0.03,1.01,1
"ex2307",0.49,-1.58,2.24,-0.68,-1.29,2
"ex2308",2.58,-0.29,-1.26,0.05,0.22,0
"ex2309",0.60,0.71,-1.87,0.38,2.31,2
"ex2310",-1.07,-0.73,-0.86,1.60,-0.66,2
"ex2311",-0.66,1.20,0.58,-0.10,1.29,1
"ex2312",0.89,-1.31,0.40,-1.39,-0.72,1
"ex2313",-0.78,-0.87,-1.42,-1.54,-0.23,1
"ex2314",-0.67,-0.03,-1.43,1.09,-0.30,0
"ex2315",0.65,0.45,0.27,-0.21,0.64,2
"ex2316",-1.52,0.24,-0.78,0.65,-0.27,0
"ex2317",0.05,-0.22,0.43,1.57,-1.03,1
"ex2318",0.29,-1.16,-0.29,0.18,-0.93,1
"ex2319",-0.92,-0.08,1.05,-0.27,-0.52,2
"ex2320",-0.29,-0.82,0.87,-0.05,-0.71,2
"ex2321",0.38,0.70,-0.34,0.61,0.35,2
"ex2322",-0.36,-0.66,2.93,0.62,-1.63,1
"ex2323",0.12,1.37,-0.29,-2.88,0.68,2
"ex2324",-0.29,1.01,-1.03,0.31,-0.18,2
"ex2325",0.17,-0.95,-0.10,-0.79,0.72,0
"ex2326",0.19,0.22,0.00,-0.43,1.25,1
"ex2327",0.91,-0.70,1.05,-0.83,0.55,0
"ex2328",0.37,-2.17,0.53,0.97,-1.43,1
"ex2329",-0.75,-0.90,1.67,0.06,1.25,0
"ex2330",-0.46,-0.16,-0.82,0.60,-1.56,0
"ex2331",1.34,-0.58,0.30,-0.52,-0.59,0
"ex2332",0.53,0.92,0.33,-1.10,0.75,1
"ex2333",0.10,1.37,0.17,-1.12,1.06,0
"ex2334",0.34,0.49,-1.09,0.22,-0.34,2
"ex2335",0.59,-0.13,0.71,1.55,-2.04,2
"ex2336",-1.41,1.74,0.90,1.17,0.20,1
"ex2337",-0.29,-1.35,0.68,1.07,1.63,1
"ex2338",0.01,1.01,-1.68,1.67,-1.20,2
"ex2339",-1.15,0.73,-1.38,-1.24,1.88,1
"ex2340",-0.66,0.57,1.15,0.74,-2.08,1
"ex2341",0.29,-2.20,0.41,1.11,1.58,0
"ex2342",1.33,2.13,-0.26,-0.88,-1.58,1
"ex2343",1.64,0.99,-1.23,-1.07,0.33,1
"ex2344",0.47,1.91,-1.15,1.03,-1.37,0
"ex2345",-1.68,0.25,-0.94,0.41,-1.45,2
"ex2346",0.76,0.80,-0.33,-2.06,-0.19,0
"ex2347",-3.38,1.14,-1.44,0.58,1.91,2
"ex2348",0.76,-0.82,0.29,0.01,-0.70,1
"ex2349",-0.08,-0.41,1.24,-1.36,-1.66,2
"ex2350",-2.21,0.08,1.15,-0.00,1.40,2
"ex2351",-1.66,0.41,1.54,1.07,-0.16,1
"ex2352",1.52,-0.02,-1.28,-0.07,-0.19,2
"ex2353",0.36,-0.42,-1.12,-0.41,-1.74,0
"ex2354",-0.01,-1.38,0.07,-1.81,0.53,2
"ex2355",0.98,0.24,-0.32,1.46,1.47,0
"ex2356",0.04,-0.04,-1.48,0.93,-1.84,0
"ex2357",-0.57,-0.61,1.47,1.79,0.51,1
"ex2358",-1.51,1.28,0.45,-0.32,-0.22,2
"ex2359",-1.45,0.42,0.79,0.34,0.96,0
"ex2360",1.00,-0.13,0.58,2.14,1.52,0
"ex2361",-1.30,-0.19,-1.77,0.95,-1.17,0
"ex2362",0.08,-1.78,-0.33,0.27,-1.02,2
"ex2363",-0.16,-0.16,-0.60,-1.90,2.35,1
"ex2364",-0.82,-0.73,1.86,0.56,-0.07,2
"ex2365",0.64,0.45,1.50,-0.97,1.29,0
"ex2366",0.46,-1.07,-0.26,-0.96,-0.00,1
"ex2367",0.19,-1.35,0.48,0.03,0.58,0
"ex2368",1.18,-0.57,-0.11,-1.20,-0.13,0
"ex2369",0.99,-0.04,0.86,0.10,-1.37,2
"ex2370",-0.67,-0.10,-0.69,0.99,-0.03,2
"ex2371",-1.26,-0.28,0.15,0.91,0.85,0
"ex2372",-1.31,0.36,0.09,0.38,-1.07,2
"ex2373",-2.65,1.43,0.17,1.10,-0.87,0
"ex2374",1.85,0.93,-1.10,0.65,0.35,0
"ex2375",0.28,0.50,-0.94,-1.81,-0.02,1
"ex2376",-1.65,1.48,-0.58,-1.28,-0.53,2
"ex2377",0.84,0.37,1.01,-0.27,-0.82,0
"ex2378",0.04,0.42,-2.87,-0.40,1.39,1
"ex2379",0.36,1.68,0.04,0.23,0.02,1
"ex2380",1.38,-0.29,-0.02,0.29,-1.13,2
"ex2381",0.72,1.25,2.29,0.61,0.22,2
"ex2382",0.12,-2.93,-0.01,-0.12,0.78,1
"ex2383",0.60,0.58,-0.54,-0.66,-1.72,0
"ex2384",0.97,0.93,0.46,0.44,-0.47,1
"ex2385",-0.25,0.05,-1.50,0.89,-0.66,0
"ex2386",0.50,-0.11,2.35,-0.76,-1.05,1
"ex2387",-0.38,-1.14,1.49,-1.08,0.69,2
"ex2388",1.36,0.41,-1.51,-1.31,-2.12,2
"ex2389",-0.87,1.75,1.10,1.47,0.27,1
"ex2390",0.09,-0.71,0.19,-1.01,-0.26,2
"ex2391",2.02,1.38,0.19,0.55,0.75,0
"ex2392",-0.74,1.29,0.28,-1.57,1.01,1
"ex2393",0.19,-0.70,1.21,0.56,0.01,2
"ex2394",0.38,-1.03,-1.55,-1.33,-0.29,0
"ex2395",-1.80,-0.23,-1.32,0.71,0.51,1
"ex2396",0.94,-1.04,2.07,-1.46,1.22,0
"ex2397",1.85,2.41,-0.37,-1.10,-0.60,0
"ex2398",0.12,0.24,1.94,-0.80,-0.15,2
"ex2399",1.41,0.08,-1.52,-0.13,0.20,2
"ex2400",0.58,0.24,0.16,2.58,0.55,0
"ex2401",0.67,-0.18,-0.79,0.04,0.59,0
"ex2402",0.65,0.14,0.16,-1.65,-0.40,2
"ex2403",2.92,0.84,0.80,-0.67,1.84,1
"ex2404",1.25,-1.81,-0.10,-1.92,-0.44,2
"ex2405",-0.61,-0.35,-1.15,0.05,-1.22,1
"ex2406",0.51,0.33,0.81,-0.06,-0.34,1
"ex2407",0.26,-0.47,-0.55,-2.24,1.07,1
"ex2408",-0.53,1.02,0.01,0.57,-0.68,2
"ex2409",1.03,-0.83,-0.09,-1.06,-0.91,0
"ex2410",1.02,2.18,-0.40,0.55,-0.73,2
"ex2411",-1.73,0.81,-0.51,1.31,0.59,1
"ex2412",1.07,-2.53,-0.74,1.59,-0.19,2
"ex2413",0.76,1.63,-0.44,0.66,-1.09,2
"ex2414",0.25,-0.25,0.32,-0.51,-1.08,2
"ex2415",0.21,0.04,-0.55,-0.12,0.00,1
"ex2416",-0.11,-1.38,1.33,1.64,-0.55,2
"ex2417",-0.51,-0.87,0.11,-2.18,0.40,0
"ex2418",-0.46,-0.69,0.69,-0.94,0.70,2
"ex2419",-0.08,-0.29,-0.18,0.04,0.27,0
"ex2420",1.72,-0.69,0.04,-0.51,0.69,2
"ex2421",0.42,-1.18,0.36,2.28,1.16,2
"ex2422",-0.34,-0.06,0.20,0.15,-0.78,1
"ex2423",1.33,1.18,0.28,-0.51,1.34,1
"ex2424",-0.90,-0.68,0.68,1.48,-0.92,0
"ex2425",-1.74,0.03,1.13,-1.66,-0.21,2
"ex2426",-1.77,0.39,0.38,-1.60,-1.13,2
"ex2427",-1.40,-1.40,-0.13,-0.31,0.72,0
"ex2428",1.50,-0.15,-1.76,-1.33,-0.24,0
"ex2429",0.27,0.67,-0.80,1.39,-0.39,1
"ex2430",0.30,1.37,-0.68,0.24,0.15,2
"ex2431",-1.11,0.40,-0.59,0.32,2.04,0
"ex2432",1.87,0.75,0.03,-0.27,0.64,2
"ex2433",-0.03,0.82,-0.37,0.42,-0.73,2
"ex2434",-0.37,-2.37,-0.33,-0.11,-1.60,0
"ex2435",-0.91,1.14,-1.05,-0.56,1.00,2
"ex2436",-1.95,0.77,-1.92,0.79,1.74,0
"ex2437",0.80,-0.81,0.55,0.53,-1.42,1
"ex2438",-0.08,-0.61,0.62,-0.62,0.31,0
"ex2439",-0.49,0.23,0.96,1.64,-1.25,1
"ex2440",0.85,0.23,-1.00,0.17,-0.50,0
"ex2441",0.18,-1.02,-0.24,0.78,-0.32,1
"ex2442",-1.07,0.34,0.74,2.32,0.66,0
"ex2443",0.19,-0.64,0.90,0.10,2.31,0
"ex2444",1.95,1.57,-0.83,-0.33,0.01,0
"ex2445",1.19,-0.32,-0.54,-2.31,-1.40,0
"ex2446",0.08,0.28,0.35,1.52,-0.34,1
"ex2447",2.57,1.50,-0.49,-0.45,-0.90,1
"ex2448",-0.92,-1.06,-0.95,-0.90,0.59,2
"ex2449",0.59,-0.77,1.56,0.94,0.30,2
"ex2450",0.72,-0.44,-0.84,0.70,1.34,2
"ex2451",0.16,-0.69,-0.70,1.46,1.04,0
"ex2452",-2.04,-1.19,0.82,-0.44,0.30,1
"ex2453",-1.48,0.31,0.33,-2.18,1.18,2
"ex2454",1.45,-0.01,-1.59,-0.11,-0.66,0
"ex2455",-0.72,-0.17,-0.66,-0.52,0.29,0
"ex2456",-1.40,-0.35,0.05,-0.05,-0.49,2
"ex2457",1.11,-1.22,-0.34,0.55,-0.73,0
"ex2458",-1.38,-0.22,0.02,-0.32,0.69,2
"ex2459",1.61,-0.47,0.55,0.67,0.18,0
"ex2460",1.31,2.27,0.05,0.37,-0.28,2
"ex2461",-1.94,0.90,1.16,-0.29,0.01,1
"ex2462",-0.63,2.05,0.23,-0.88,-0.71,0
"ex2463",0.23,-0.43,0.51,1.39,-0.55,0
"ex2464",-2.61,0.48,0.47,-0.91,1.36,2
"ex2465",-0.18,-0.12,0.25,1.07,2.32,0
"ex2466",-0.08,0.50,-1.69,1.54,2.49,0
"ex2467",-1.87,-0.04,-2.36,0.83,0.85,1
"ex2468",1.10,0.65,0.28,0.83,-0.24,1
"ex2469",1.48,-0.42,0.52,-0.56,-0.09,1
"ex2470",0.41,0.33,-0.41,2.33,0.78,2
"ex2471",-1.25,-0.29,-0.94,0.58,0.28,2
"ex2472",1.54,-1.69,0.33,0.07,1.07,1
"ex2473",-0.40,-0.33,-1.65,-0.89,-0.99,1
"ex2474",0.77,-0.06,0.41,-1.53,0.96,2
"ex2475",0.30,-0.71,-0.19,-0.34,0.48,1
"ex2476",0.37,-1.49,0.79,0.73,0.65,2
"ex2477",-0.10,-1.61,-0.66,-0.26,0.80,2
"ex2478",0.62,0.01,1.31,-0.79,1.00,1
"ex2479",-0.42,1.00,0.60,0.69,-0.08,0
"ex2480",-0.33,1.17,0.99,-0.68,2.11,1
"ex2481",-1.84,-0.05,0.33,-1.18,0.04,0
"ex2482",-0.28,0.20,0.53,1.05,2.03,1
"ex2483",-2.37,0.20,0.66,-0.67,1.12,1
"ex2484",-0.05,-1.06,-0.60,-1.71,2.20,0
"ex2485",0.81,-0.41,-0.81,1.19,2.53,1
"ex2486",0.24,-0.98,-0.29,0.60,1.17,1
"ex2487",-0.41,-0.15,1.21,0.17,-0.63,1
"ex2488",-0.54,-1.16,-0.57,0.19,0.31,0
"ex2489",-0.19,1.36,0.68,0.18,-0.44,2
"ex2490",-1.01,-0.50,-2.08,1.40,0.37,1
"ex2491",-2.38,-2.60,-0.65,0.68,-0.00,1
"ex2492",-1.20,0.42,0.83,0.27,-0.76,1
"ex2493",0.26,-1.47,0.60,-0.22,-1.24,2
"ex2494",1.08,0.43,-0.31,1.14,1.04,0
"ex2495",0.42,-0.15,0.51,-0.84,1.23,0
"ex2496",-0.84,-0.80,-0.14,-0.70,0.26,0
"ex2497",1.67,-0.57,-0.45,1.87,-0.33,1
"ex2498",-0.13,-0.06,1.79,-0.34,0.09,1
"ex2499",1.40,0.03,0.67,0.40,-0.76,2
"ex2500",0.80,0.86,0.21,1.50,-1.77,2
"ex2501",-1.45,0.30,-0.09,-1.01,0.37,1
"ex2502",0.37,0.19,2.22,0.05,-0.79,2
"ex2503",-0.36,0.20,0.50,-0.84,0.67,2
"ex2504",-1.43,-1.40,-0.56,-0.06,-0.61,0
"ex2505",0.09,0.60,0.73,-0.74,1.37,0
"ex2506",-1.11,-0.27,-0.30,0.85,1.11,2
"ex2507",0.11,0.25,0.02,-0.64,-0.89,1
"ex2508",-0.71,-0.64,-0.38,-2.26,0.03,2
"ex2509",1.18,1.06,0.21,0.79,0.34,2
"ex2510",0.17,1.68,0.87,-2.02,1.51,0
"ex2511",2.21,-1.20,1.32,0.29,0.61,2
"ex2512",-0.22,-0.97,-0.55,-2.09,-0.13,1
"ex2513",0.28,1.05,2.19,0.74,0.60,2
"ex2514",0.18,1.13,0.33,-0.43,-0.41,1
"ex2515",-0.90,-0.63,-0.48,-0.34,-1.81,1
"ex2516",0.55,-0.81,-0.44,-0.46,-0.73,1
"ex2517",-0.84,-1.02,0.69,-0.08,0.23,0
"ex2518",0.65,-0.37,1.57,-0.72,-0.09,2
"ex2519",0.23,0.80,1.19,2.06,-0.73,0
"ex2520",-0.83,-0.25,-0.18,-1.31,-0.05,1
"ex2521",-1.30,0.81,-0.27,0.03,-1.38,1
"ex2522",0.34,-0.78,0.13,0.18,-0.96,0
"ex2523",0.36,-2.37,-0.08,-0.64,1.39,1
"ex2524",1.55,-0.41,-0.69,1.03,-0.59,0
"ex2525",0.56,-0.28,-1.12,1.16,0.10,1
"ex2526",0.77,1.03,2.25,0.05,0.73,2
"ex2527",0.61,1.04,0.40,-0.39,-1.02,1
"ex2528",1.50,-0.76,-0.94,-0.15,-0.88,0
"ex2529",-0.18,-0.98,1.32,1.16,0.69,0
"ex2530",0.47,-0.69,-0.01,0.30,-1.56,1
"ex2531",-0.76,0.94,0.66,0.64,-0.06,1
"ex2532",-0.96,1.00,-0.47,-1.45,-0.71,2
"ex2533",0.24,1.49,-0.31,-0.92,2.99,1
"ex2534",0.84,2.26,-1.68,0.62,-0.52,2
"ex2535",-0.12,-1.67,0.70,-0.63,1.23,1
"ex2536",0.24,0.18,0.01,-0.56,1.39,2
"ex2537",0.07,-1.31,1.49,0.79,-2.33,1
"ex2538",0.19,-0.64,-0.47,-1.39,-0.76,2
"ex2539",0.61,-0.78,-0.16,-1.27,1.10,1
"ex2540",-1.09,-0.27,-0.59,1.98,-0.87,2
"ex2541",0.05,0.40,0.42,-1.69,2.48,0
"ex2542",-0.21,0.98,0.57,-0.74,-2.00,2
"ex2543",-0.48,0.33,-0.73,0.75,-0.41,0
"ex2544",0.47,1.15,1.26,-0.33,-0.01,1
"ex2545",0.95,-0.82,-0.29,0.39,0.31,1
"ex2546",0.50,-1.40,-0.35,-1.45,-0.34,2
"ex2547",-0.10,-0.92,-0.44,-1.08,0.59,1
"ex2548",-1.37,-0.90,-0.40,-1.73,0.61,0
"ex2549",0.45,1.51,0.35,0.37,-1.71,0
"ex2550",0.66,1.68,-1.29,1.11,-0.27,1
"ex2551",-0.34,-0.40,0.30,-0.21,1.25,2
"ex2552",-0.93,-1.45,-0.47,1.38,-0.64,1
"ex2553",-0.67,0.31,0.46,-0.24,1.11,1
"ex2554",1.21,-2.28,-0.04,-0.84,0.53,0
"ex2555",-0.77,-0.81,0.55,-1.04,-0.84,1
"ex2556",0.68,1.27,-0.70,-0.67,1.47,1
"ex2557",0.61,0.36,-0.07,0.39,-0.95,2
"ex2558",-0.25,-0.25,0.81,-2.54,-0.33,0
"ex2559",-0.97,-0.15,1.59,-0.71,-0.11,1
"ex2560",0.19,0.26,-0.68,0.41,-1.71,0
"ex2561",-0.73,1.80,0.58,-0.11,0.02,2
"ex2562",0.08,1.10,-1.97,0.16,1.53,1
"ex2563",-0.48,-0.51,-0.34,1.44,1.58,2
"ex2564",-0.30,0.59,-0.85,-1.34,-0.31,2
"ex2565",1.10,-1.04,0.93,-0.74,1.27,2
"ex2566",-0.01,0.64,1.26,0.00,-0.22,1
"ex2567",0.70,0.42,0.68,0.81,-0.21,1
"ex2568",1.12,-0.27,0.42,0.98,-0.92,1
"ex2569",0.50,-0.37,1.42,0.61,0.93,2
"ex2570",-0.03,1.66,0.99,0.77,-0.59,2
"ex2571",0.11,1.83,0.22,0.71,-1.30,1
"ex2572",0.56,-0.41,1.53,0.09,-1.00,0
"ex2573",0.70,-0.44,1.08,-1.61,-0.70,2
"ex2574",0.39,-1.92,-2.35,0.56,-0.05,2
"ex2575",0.53,-0.64,-1.40,-1.22,0.45,0
"ex2576",0.11,1.21,-1.84,-0.93,0.00,1
"ex2577",-1.54,-0.20,-0.83,0.37,0.21,0
"ex2578",-1.18,-1.39,-0.59,1.64,-0.16,1
"ex2579",-0.79,-0.88,-1.01,-0.12,-0.50,2
"ex2580",2.07,1.57,0.47,-1.43,1.06,0
"ex2581",0.22,0.15,-0.72,-0.55,0.62,1
"ex2582",2.06,0.94,-0.73,-0.02,-1.83,1
"ex2583",-1.70,2.20,-0.09,0.67,0.32,2
"ex2584",0.24,-2.17,-0.43,1.34,-0.40,1
"ex2585",-0.62,-0.58,1.86,-1.17,-1.61,1
"ex2586",-0.54,0.17,-0.89,0.47,0.31,2
"ex2587",-1.16,-0.06,-0.35,-0.54,0.60,0
"ex2588",1.49,-0.81,-1.00,0.49,0.13,2
"ex2589",-1.93,0.55,-1.17,0.28,-0.30,2
"ex2590",-1.31,-0.84,-0.97,-0.83,-1.90,1
"ex2591",-0.40,-1.39,1.56,0.66,-0.96,1
"ex2592",0.02,-0.79,-1.72,0.75,0.10,2
"ex2593",0.64,0.15,-1.11,0.20,-2.22,0
"ex2594",-0.31,-0.79,1.39,-1.36,0.11,2
"ex2595",0.19,0.92,2.55,-1.38,2.44,1
"ex2596",0.85,-0.45,0.23,1.08,0.97,1
"ex2597",-0.64,-1.04,-0.95,-0.89,0.57,1
"ex2598",-1.20,0.53,1.33,0.53,1.45,0
"ex2599",0.38,-0.52,-1.67,0.38,0.52,1
"ex2600",-0.60,-0.20,-1.12,2.61,-0.19,1
"ex2601",-0.24,-0.30,-1.22,1.54,0.61,0
"ex2602",-0.72,-0.41,-0.46,0.73,-0.24,1
"ex2603",-0.33,0.59,-0.42,-1.21,-0.65,1
"ex2604",-0.42,2.07,0.54,0.17,0.78,0
"ex2605",1.77,0.69,0.13,0.48,0.70,2
"ex2606",0.39,-0.25,-1.56,-0.40,0.48,0
"ex2607",0.04,1.20,0.92,0.00,-1.22,2
"ex2608",-0.30,-1.46,-1.43,-0.49,0.97,1
"ex2609",0.49,-0.34,0.88,0.30,1.97,2
"ex2610",-0.73,0.68,0.66,0.97,1.43,1
"ex2611",0.91,-0.92,-0.93,-0.92,-0.97,0
"ex2612",0.74,-0.36,0.60,-0.53,2.14,1
"ex2613",-0.50,1.29,1.44,-0.59,-1.94,2
"ex2614",0.92,1.05,0.58,2.25,0.71,0
"ex2615",2.56,0.22,0.84,1.04,0.85,0
"ex2616",0.95,-1.28,1.04,1.67,-1.28,1
"ex2617",0.05,0.36,0.38,0.10,-2.01,0
"ex2618",-0.73,0.70,-1.76,1.25,-0.51,0
"ex2619",0.58,0.49,0.85,0.18,1.11,0
"ex2620",1.03,-1.05,-0.32,-1.82,0.05,2
"ex2621",2.11,-0.10,-0.12,0.34,0.11,1
"ex2622",-0.70,-1.19,-0.04,2.35,-1.18,2
"ex2623",0.36,0.40,-2.08,0.65,0.44,1
"ex2624",-1.30,1.57,1.47,0.39,-1.59,0
"ex2625",-0.45,0.94,0.08,-1.16,0.36,2
"ex2626",0.25,-0.95,0.14,-1.60,-0.66,1
"ex2627",-0.33,-0.67,-3.29,-1.32,-2.84,1
"ex2628",0.87,0.07,1.16,-0.66,2.03,0
"ex2629",-1.01,0.85,0.83,1.42,0.96,2
"ex2630",-1.96,0.70,-0.10,-0.81,-0.79,1
"ex2631",0.01,0.98,-2.11,0.57,-1.22,0
"ex2632",-0.91,0.08,-0.56,0.36,-1.80,0
"ex2633",-1.76,-1.68,1.15,-0.56,-1.26,2
"ex2634",-0.83,-0.51,-1.09,1.42,2.14,0
"ex2635",0.21,-0.35,-1.57,-1.82,0.59,2
"ex2636",-0.28,-0.89,1.74,1.61,-0.15,1
"ex2637",0.03,0.86,-1.19,0.90,1.35,2
"ex2638",0.80,0.97,-0.70,-2.74,-2.44,0
"ex2639",-1.10,-0.32,0.96,0.92,-2.01,1
"ex2640",0.18,-0.50,-0.25,0.39,1.15,1
"ex2641",-1.40,1.43,0.23,-0.12,-0.91,1
"ex2642",-0.24,1.79,-1.07,0.27,-0.83,0
"ex2643",0.39,-2.07,0.71,-0.88,0.44,1
"ex2644",0.97,-0.49,1.01,0.22,-0.02,2
"ex2645",-0.76,0.99,-1.41,-0.05,-0.51,1
"ex2646",0.37,1.31,1.48,-0.75,1.70,1
"ex2647",0.24,-1.95,2.86,0.26,0.83,2
"ex2648",-0.66,-0.83,-0.70,1.41,1.32,1
"ex2649",-0.30,0.20,-1.35,0.09,-1.06,2
"ex2650",-1.47,-0.10,-0.21,0.56,-1.18,0
"ex2651",-0.29,0.59,-0.25,1.07,2.84,0
"ex2652",1.17,0.22,-0.65,-0.98,-0.80,0
"ex2653",1.88,0.75,1.01,0.23,-1.83,0
"ex2654",-0.80,-1.86,-1.15,-0.70,-2.08,1
"ex2655",-0.18,-1.85,0.14,-1.27,-0.42,2
"ex2656",0.59,0.40,-0.57,-0.93,1.81,1
"ex2657",-0.33,0.36,-0.57,1.78,0.73,2
"ex2658",0.17,0.27,-0.50,-0.40,-0.14,0
"ex2659",-1.37,-0.08,0.71,0.95,-0.39,2
"ex2660",0.74,-0.85,-0.19,-1.01,-0.88,1
"ex2661",1.48,2.29,-1.46,-0.49,0.30,2
"ex2662",0.26,0.76,1.45,1.28,0.40,2
"ex2663",0.50,-1.06,-1.77,1.12,-1.84,2
"ex2664",1.86,0.25,0.02,0.38,-0.30,2
"ex2665",1.90,-0.75,0.22,0.38,-0.47,0
"ex2666",0.70,0.57,0.43,-1.18,-0.30,0
"ex2667",0.13,0.70,-1.14,-0.25,1.10,0
"ex2668",-0.70,0.96,-1.47,0.11,0.02,2
"ex2669",0.77,-0.38,1.46,-0.47,-1.40,2
"ex2670",-0.16,-0.85,1.49,0.16,0.94,0
"ex2671",1.54,0.27,-0.04,1.59,0.79,2
"ex2672",-0.05,-0.08,-0.30,-1.43,2.69,2
"ex2673",0.29,1.78,1.34,-2.13,0.18,0
"ex2674",-2.30,0.23,1.01,-1.10,0.38,0
"ex2675",-1.34,0.21,-0.55,-0.34,-0.84,0
"ex2676",0.10,0.45,-0.21,0.90,0.67,0
"ex2677",0.52,-0.70,-1.46,0.76,1.57,0
"ex2678",0.93,1.07,-0.69,-1.36,2.23,0
"ex2679",-0.78,-0.94,-0.16,1.15,2.24,1
"ex2680",-0.68,-0.83,1.19,0.49,-1.09,1
"ex2681",-0.74,1.90,0.43,2.15,0.84,0
"ex2682",-0.88,0.12,0.49,-2.53,-0.13,1
"ex2683",0.00,-0.12,0.09,-2.02,-0.01,1
"ex2684",-0.25,-0.24,-0.87,1.66,3.36,1
"ex2685",-0.35,0.07,0.43,-0.36,-0.76,0
"ex2686",-0.30,0.90,-0.10,0.95,-1.28,2
"ex2687",-1.37,-1.35,1.42,0.54,0.10,2
"ex2688",0.71,-0.73,-0.04,-0.79,0.36,0
"ex2689",-0.71,1.15,0.73,1.91,0.74,2
"ex2690",0.40,-0.26,0.13,0.97,-0.03,2
"ex2691",-1.35,-0.38,0.38,-0.98,-0.25,0
"ex2692",-1.52,-0.78,0.30,-0.17,1.00,0
"ex2693",1.68,0.20,-0.32,-0.73,-0.13,0
"ex2694",-0.75,0.34,0.47,0.38,0.31,0
"ex2695",0.24,-1.28,-0.04,2.04,0.97,0
"ex2696",-2.27,-0.01,-0.98,1.25,1.01,2
"ex2697",0.19,0.83,0.31,1.28,0.69,1
"ex2698",-0.58,-0.13,-0.58,-0.73,2.08,2
"ex2699",0.40,0.79,1.40,-1.39,-1.54,2
"ex2700",-0.60,0.82,-0.21,-0.71,-0.36,0
"ex2701",-1.06,-0.59,-0.36,-1.47,0.35,2
"ex2702",1.93,-0.33,0.01,1.27,0.03,0
"ex2703",-0.54,-0.11,-1.00,0.66,0.74,1
"ex2704",-0.03,-0.17,-0.27,-0.12,0.19,0
"ex2705",0.43,-0.36,-1.04,-0.88,0.07,2
"ex2706",-0.18,0.03,-0.75,-0.52,0.35,0
"ex2707",0.01,0.68,-1.11,0.20,-1.16,0
"ex2708",-0.62,-0.47,0.91,1.08,-1.09,1
"ex2709",-1.20,2.27,-0.59,-1.74,-0.49,2
"ex2710",0.63,0.22,-1.83,-0.15,-0.73,0
"ex2711",-0.70,1.32,-0.04,0.11,0.66,1
"ex2712",-0.90,1.86,-1.05,-1.14,-0.96,1
"ex2713",-0.16,0.49,0.69,0.70,-0.36,1
"ex2714",1.74,1.28,-0.72,0.40,0.41,1
"ex2715",-0.16,0.67,0.20,1.58,0.63,0
"ex2716",0.79,-0.05,0.12,-0.61,-0.65,1
"ex2717",0.10,0.23,-0.53,0.89,-0.02,1
"ex2718",-1.13,-0.40,1.10,0.33,0.64,0
"ex2719",2.20,0.52,-0.01,-0.20,0.40,0
"ex2720",0.21,0.12,1.30,0.38,-0.09,1
"ex2721",-0.48,-0.24,-0.37,-1.93,-2.08,1
"ex2722",-0.70,-0.20,0.42,-0.26,0.71,1
"ex2723",0.69,0.74,-1.74,1.91,0.10,1
"ex2724",-1.50,-0.10,0.93,1.75,-0.50,1
"ex2725",0.26,-0.12,-1.40,0.15,0.53,2
"ex2726",-0.61,-0.82,-1.29,-0.45,-0.02,0
"ex2727",0.21,0.20,0.62,1.44,1.25,2
"ex2728",0.48,-1.27,0.34,-0.68,0.80,1
"ex2729",-0.74,0.34,-0.36,1.38,0.78,1
"ex2730",-1.06,-0.30,-0.37,-1.10,-1.03,2
"ex2731",-0.62,-0.46,0.87,1.75,0.49,2
"ex2732",1.06,1.62,-0.32,1.32,-0.33,0
"ex2733",2.01,-0.13,0.79,1.61,1.76,2
"ex2734",0.75,-0.75,-0.42,1.20,-0.13,2
"ex2735",0.21,0.83,-0.74,-1.29,-0.36,0
"ex2736",1.90,-1.50,0.88,0.42,2.09,1
"ex2737",0.27,2.47,0.47,1.01,-0.21,1
"ex2738",-1.92,0.26,0.42,2.01,0.10,2
"ex2739",-0.61,-0.27,0.43,0.53,0.92,2
"ex2740",-0.28,-1.15,-0.19,0.23,-1.93,1
"ex2741",1.01,1.68,-1.43,-1.05,0.81,2
"ex2742",0.68,1.88,0.45,-0.98,-1.50,2
"ex2743",-1.77,-1.28,0.06,-0.04,-0.13,2
"ex2744",-0.16,-0.31,-0.22,-1.18,-0.32,0
"ex2745",-0.31,0.28,0.61,0.62,-0.85,2
"ex2746",0.70,-0.29,-0.17,0.08,-1.11,0
"ex2747",0.17,-0.03,1.32,-0.01,-1.34,0
"ex2748",-0.23,0.47,0.52,-2.90,-0.35,1
"ex2749",1.15,0.99,-1.20,0.95,-0.79,0
"ex2750",0.93,-0.01,0.57,0.05,-0.50,1
"ex2751",0.01,0.63,0.39,-1.12,-1.57,0
"ex2752",0.17,-0.06,1.37,-0.38,0.85,1
"ex2753",1.85,-1.24,-0.20,-2.88,1.24,0
"ex2754",0.53,0.11,-2.10,1.31,0.36,2
"ex2755",-0.09,0.27,-0.49,-1.12,-1.08,1
"ex2756",-1.02,0.84,-0.20,0.30,1.81,2
"ex2757",-0.66,-0.05,0.16,-0.98,0.68,0
"ex2758",-1.25,-0.34,0.14,0.88,0.34,1
"ex2759",-1.85,-0.11,-1.02,0.20,0.21,1
"ex2760",-0.36,-0.56,-0.56,0.23,0.25,1
"ex2761",-0.51,0.27,-0.96,0.18,0.76,0
"ex2762",0.59,-0.28,-0.62,0.54,-0.61,0
"ex2763",0.71,-0.71,-0.95,1.32,-1.20,0
"ex2764",-0.35,-0.97,-0.48,-0.21,1.37,0
"ex2765",0.40,0.66,0.21,0.92,-0.19,2
"ex2766",-0.81,0.36,0.84,-0.26,3.45,0
"ex2767",-0.93,0.01,-1.51,1.17,1.43,0
"ex2768",-0.52,-0.66,-2.34,0.19,0.24,2
"ex2769",0.90,0.63,1.17,1.07,0.30,2
"ex2770",-0.89,0.62,0.07,-1.76,0.63,2
"ex2771",0.72,-0.28,-0.62,0.29,0.43,2
"ex2772",-0.58,1.82,0.27,1.23,0.82,2
"ex2773",-0.65,-2.26,0.99,1.87,0.68,2
"ex2774",-0.67,1.17,0.11,-1.12,1.10,1
"ex2775",2.17,0.33,1.43,0.18,-0.07,1
"ex2776",-0.30,-0.50,-1.61,0.08,-1.13,1
"ex2777",-0.18,0.28,1.85,0.79,0.50,0
"ex2778",1.75,1.19,0.39,0.03,-0.70,0
"ex2779",-0.61,0.13,1.26,0.13,1.52,2
"ex2780",0.37,1.20,-2.05,-2.17,0.50,2
"ex2781",0.65,-1.03,-0.03,-0.58,0.71,1
"ex2782",1.02,-1.07,-0.29,-0.32,-0.88,1
"ex2783",-2.15,-1.41,0.72,0.54,-1.15,1
"ex2784",-1.34,1.22,1.25,-0.86,-1.82,0
"ex2785",0.19,1.06,-0.40,0.75,0.72,2
"ex2786",-0.24,0.39,2.29,-0.71,-0.01,0
"ex2787",0.22,0.60,0.98,0.04,0.18,0
"ex2788",0.51,-1.23,0.78,-0.60,-0.89,0
"ex2789",-0.58,0.09,-0.85,1.43,1.88,1
"ex2790",-1.23,2.39,-0.18,2.05,-0.18,2
"ex2791",-0.47,0.26,-1.14,0.92,-0.58,2
"ex2792",-0.21,1.47,0.02,0.83,0.37,0
"ex2793",-0.92,0.25,-0.18,0.64,-1.21,1
"ex2794",-0.27,-0.40,-0.29,0.90,0.56,1
"ex2795",0.04,-0.22,-0.31,0.83,0.59,0
"ex2796",-0.94,-0.45,0.29,0.39,-0.34,0
"ex2797",0.14,-1.73,-1.13,0.17,-0.25,1
"ex2798",0.41,-0.03,-0.61,-0.50,0.12,1
"ex2799",-0.13,-0.12,-1.66,1.80,0.98,0
"ex2800",1.06,1.11,-0.35,-1.48,0.81,2
"ex2801",0.43,-0.10,-1.17,-1.26,0.01,0
"ex2802",-0.58,0.78,-0.85,-0.36,0.25,2
"ex2803",-0.36,0.27,-0.49,-0.88,-1.85,0
"ex2804",-0.47,0.57,0.65,0.33,0.90,0
"ex2805",0.64,-1.77,1.56,-0.29,0.18,1
"ex2806",0.27,-0.88,-2.28,-0.78,-2.98,1
"ex2807",-0.11,-0.34,-1.53,0.47,-0.89,1
"ex2808",-0.27,0.34,-0.14,-0.69,0.88,1
"ex2809",1.85,0.15,1.00,0.80,-0.79,1
"ex2810",1.56,-0.63,-0.61,-0.06,-0.36,2
"ex2811",1.40,0.87,1.40,2.47,0.38,1
"ex2812",1.14,1.86,1.23,-0.89,0.29,1
"ex2813",0.04,-0.25,0.83,-1.72,0.03,2
"ex2814",0.17,-1.00,-0.67,-1.52,0.67,0
"ex2815",1.25,0.26,-0.80,-2.08,-0.74,2
"ex2816",0.05,0.43,-0.78,-1.57,0.09,0
"ex2817",0.03,0.07,0.00,-0.80,-2.27,1
"ex2818",0.62,0.28,1.67,-0.62,0.55,1
"ex2819",-0.00,-2.23,2.33,3.33,-0.78,2
"ex2820",-1.45,-0.62,-0.57,0.88,-0.39,2
"ex2821",-1.57,0.00,-0.36,0.56,0.63,2
"ex2822",0.41,1.71,-1.35,0.54,-0.67,1
"ex2823",0.91,1.29,-1.92,0.05,-0.36,0
"ex2824",-0.74,1.30,0.42,0.64,-0.52,2
"ex2825",-0.76,-0.05,0.02,-0.54,-0.96,0
"ex2826",0.07,-1.15,-1.31,-0.40,1.05,2
"ex2827",1.30,0.58,0.88,0.01,1.19,1
"ex2828",0.42,-0.52,0.38,-0.05,-1.25,2
"ex2829",-1.68,-0.80,0.82,-1.53,-0.62,1
"ex2830",-0.01,0.36,-1.15,-0.01,-0.09,1
"ex2831",0.76,0.04,0.13,-0.75,-0.06,2
"ex2832",-2.38,0.76,-0.67,-2.07,1.57,2
"ex2833",0.08,-1.72,0.78,-0.11,-0.11,1
"ex2834",0.48,0.31,-1.67,0.90,0.01,1
"ex2835",-0.17,1.46,-0.96,-0.52,-0.53,0
"ex2836",1.17,-0.67,-0.82,0.47,-0.09,2
"ex2837",0.41,1.33,0.70,-0.62,0.32,1
"ex2838",-0.87,0.76,-0.11,-0.53,1.04,1
"ex2839",0.94,-0.87,-0.48,0.49,1.93,2
"ex2840",1.03,-0.75,1.74,-1.11,0.81,2
"ex2841",-0.34,-0.41,0.60,0.30,-1.06,0
"ex2842",-1.45,-0.23,0.41,-0.56,1.11,2
"ex2843",1.22,-1.11,-0.38,0.49,0.26,2
"ex2844",-0.09,0.86,0.47,-0.27,0.02,0
"ex2845",0.18,-0.10,-0.22,2.35,0.98,0
"ex2846",-0.35,-0.20,0.49,-0.08,-0.34,0
"ex2847",0.04,-0.92,-0.35,1.64,0.67,1
"ex2848",-0.71,0.47,-0.64,0.89,0.47,2
"ex2849",-1.03,2.42,-0.64,-0.85,-2.46,1
"ex2850",-1.57,-0.52,-0.58,1.12,0.39,1
"ex2851",0.20,-0.42,-1.05,-0.10,-0.14,1
"ex2852",0.41,-1.05,-0.52,-1.29,0.95,2
"ex2853",1.76,-0.69,-0.19,-0.24,-0.20,2
"ex2854",-1.15,-1.10,1.36,1.09,-0.06,0
"ex2855",1.30,-0.77,-0.75,0.13,-0.85,1
"ex2856",-0.95,-1.38,-1.12,-0.55,1.62,2
"ex2857",0.90,-1.15,0.81,-1.19,-0.48,2
"ex2858",0.01,0.26,0.72,-0.98,-1.49,1
"ex2859",-0.53,-1.82,1.00,1.32,1.93,1
"ex2860",-0.84,1.82,0.81,0.78,0.00,1
"ex2861",0.02,-1.12,1.69,-0.90,-0.26,1
"ex2862",-1.32,2.04,0.63,0.98,-1.13,1
"ex2863",0.09,0.18,1.61,0.11,-0.79,2
"ex2864",-1.10,1.10,-1.71,-0.53,-0.19,2
"ex2865",0.81,-0.36,-0.73,0.82,0.99,2
"ex2866",0.75,-1.13,-0.12,-0.57,0.93,0
"ex2867",-0.36,-0.76,-0.77,0.94,0.97,2
"ex2868",-0.43,-0.14,-0.33,1.42,-1.20,1
"ex2869",-0.28,-0.01,0.42,-0.02,-0.56,0
"ex2870",-0.30,0.04,-0.66,-0.67,0.81,1
"ex2871",-0.07,1.98,-1.58,-0.08,-0.83,2
"ex2872",-1.17,1.77,1.94,-1.47,-0.14,0
"ex2873",3.08,0.92,3.07,-1.03,1.05,2
"ex2874",0.63,-0.88,-0.84,0.96,-1.12,1
"ex2875",0.14,-0.24,0.18,0.04,-0.95,2
"ex2876",0.82,-0.62,0.74,0.02,0.68,1
"ex2877",-0.58,-0.81,0.56,3.31,-1.19,2
"ex2878",0.28,0.85,-1.49,-0.10,-0.20,1
"ex2879",-0.65,0.48,0.24,-0.33,-1.61,0
"ex2880",0.30,0.88,-0.26,-0.42,1.01,1
"ex2881",1.13,-1.13,3.25,0.27,-1.14,1
"ex2882",0.69,0.24,-0.37,1.39,0.52,0
"ex2883",-0.86,0.19,0.48,0.73,0.34,1
"ex2884",0.93,0.32,-0.81,-2.21,2.65,1
"ex2885",-0.35,0.37,0.73,1.17,-0.25,1
"ex2886",1.21,-0.25,-0.59,-0.45,-0.07,0
"ex2887",1.65,-0.15,-1.27,0.82,-0.98,1
"ex2888",0.30,-0.40,-0.57,-0.44,1.69,0
"ex2889",-0.43,-0.23,0.38,-1.42,1.48,0
"ex2890",0.51,0.40,0.73,-1.04,0.61,2
"ex2891",-1.41,-0.74,1.00,1.16,-0.34,2
"ex2892",-0.97,-0.85,-0.21,-0.18,1.49,2
"ex2893",-0.48,0.46,2.23,0.84,-0.97,0
"ex2894",0.96,-0.32,-0.05,-0.84,1.35,1
"ex2895",-1.27,-0.01,0.28,0.80,-0.17,1
"ex2896",0.28,-2.83,-1.19,0.79,0.28,1
"ex2897",0.90,-0.57,1.05,2.30,-1.79,0
"ex2898",1.41,-0.91,0.79,0.34,1.54,2
"ex2899",0.03,-0.33,0.98,0.36,-2.12,1
"ex2900",-1.58,-0.94,0.29,-0.74,-1.06,0
"ex2901",-0.50,0.46,-1.82,1.49,1.50,0
"ex2902",0.14,-0.58,0.76,1.61,-0.86,1
"ex2903",0.72,0.24,0.41,1.24,-0.67,1
"ex2904",0.21,0.57,1.10,1.49,-1.04,0
"ex2905",-0.70,1.17,-1.84,-0.65,0.58,0
"ex2906",-0.52,-0.05,-0.64,2.03,0.08,1
"ex2907",-0.55,-0.01,1.65,-0.39,0.62,1
"ex2908",-0.71,-0.72,0.07,-0.24,0.57,2
"ex2909",-1.93,0.05,-1.46,1.59,0.59,0
"ex2910",0.47,-0.91,0.73,1.39,-0.59,0
"ex2911",-0.02,2.42,-0.56,-1.01,0.05,2
"ex2912",-1.85,1.44,-3.06,0.01,-0.25,0
"ex2913",-1.71,0.89,-1.31,-0.51,0.66,2
"ex2914",-0.85,-0.33,0.11,-0.55,-0.77,1
"ex2915",0.60,0.25,1.93,0.85,-1.01,1
"ex2916",1.65,0.19,-0.29,-0.17,-0.74,1
"ex2917",0.37,0.19,0.71,-2.43,-1.61,2
"ex2918",-0.48,0.34,0.13,1.91,0.32,2
"ex2919",-0.43,-0.18,-1.90,-1.17,0.35,2
"ex2920",1.58,0.16,0.01,0.62,0.52,1
"ex2921",-1.05,-0.80,-0.12,-1.62,-0.28,2
"ex2922",-0.06,-1.01,-0.05,-0.93,-0.79,1
"ex2923",0.30,-0.90,-0.87,-0.55,-0.16,2
"ex2924",1.50,1.13,1.30,-0.54,0.74,0
"ex2925",1.00,0.58,-0.63,0.81,1.66,2
"ex2926",-1.40,0.54,0.62,-0.08,-0.88,0
"ex2927",1.03,-1.00,1.41,0.97,-0.01,0
"ex2928",0.87,-1.52,1.02,-0.38,1.18,1
"ex2929",2.07,0.51,-2.11,1.38,-0.20,0
"ex2930",0.01,0.38,-0.19,0.66,-0.78,0
"ex2931",-0.62,-0.69,-0.27,0.29,-0.76,2
"ex2932",-0.19,-0.49,-0.49,-0.06,1.44,0
"ex2933",0.82,-0.45,-0.69,-0.09,1.53,2
"ex2934",-1.36,1.63,-0.25,-0.64,-0.16,1
"ex2935",-1.39,1.45,0.01,1.00,-0.01,2
"ex2936",0.29,-0.34,-2.71,0.23,-0.59,2
"ex2937",-0.07,-0.28,-0.83,0.91,-1.21,2
"ex2938",-1.07,-1.00,-0.76,0.27,-0.14,1
"ex2939",-0.06,-0.58,1.10,-1.52,0.41,2
"ex2940",-0.95,0.21,-0.42,1.75,0.75,2
"ex2941",-0.92,-0.63,1.10,0.52,-1.89,0
"ex2942",1.66,-0.18,-0.97,0.56,-0.47,1
"ex2943",0.24,2.06,0.88,-0.90,0.07,0
"ex2944",1.07,1.30,-0.13,-0.89,0.60,1
"ex2945",-1.68,1.39,1.40,-0.92,-0.72,1
"ex2946",0.71,-0.00,-0.75,1.08,0.26,0
"ex2947",0.12,-0.55,-0.27,-0.16,-0.28,2
"ex2948",-0.23,1.13,-0.85,-0.75,1.30,1
"ex2949",-0.93,1.35,0.78,0.43,0.68,2
"ex2950",0.81,0.54,-1.18,0.45,-0.52,1
"ex2951",-0.17,-1.48,-0.30,-0.23,2.51,0
"ex2952",0.06,0.29,-1.00,-0.33,0.14,0
"ex2953",0.34,-0.25,0.21,1.38,-1.53,2
"ex2954",-0.76,2.03,-0.58,-1.17,1.26,2
"ex2955",-0.55,0.74,-0.63,-1.95,0.16,2
"ex2956",1.16,1.07,0.32,-0.65,-0.27,1
"ex2957",-0.10,-1.09,-0.98,-1.87,-1.14,0
"ex2958",-0.78,1.00,1.11,0.02,-0.42,1
"ex2959",-1.04,-0.15,-0.67,0.15,0.80,2
"ex2960",-1.26,1.46,0.27,1.14,0.27,0
"ex2961",0.42,-0.09,-1.29,-0.12,-0.35,1
"ex2962",1.25,-0.23,0.65,-0.02,-1.74,0
"ex2963",3.17,0.58,-0.62,0.32,0.94,0
"ex2964",0.90,0.62,0.99,0.10,0.97,0
"ex2965",-0.79,-0.48,0.44,1.83,0.45,2
"ex2966",-0.39,-0.27,0.01,-1.47,1.23,1
"ex2967",0.84,1.00,1.73,-0.90,-0.50,1
"ex2968",0.23,0.79,0.73,1.45,-0.82,1
"ex2969",-1.56,-0.74,1.20,0.54,-0.22,1
"ex2970",0.36,-1.29,-0.11,0.21,-0.70,0
"ex2971",-0.05,0.35,0.49,0.09,-0.45,0
"ex2972",1.87,-0.91,0.16,-1.65,-0.51,0
"ex2973",-1.22,-0.46,-0.09,-1.07,-0.22,2
"ex2974",0.84,-0.19,0.34,0.58,1.39,2
"ex2975",1.53,0.06,0.10,-0.45,-0.13,0
"ex2976",-0.08,0.31,-1.19,-0.63,-0.87,1
"ex2977",-0.67,-0.47,1.04,-1.31,2.00,1
"ex2978",0.93,1.08,0.75,0.01,-0.81,0
"ex2979",-1.79,0.05,-0.48,0.11,0.55,1
"ex2980",0.19,-0.28,-1.90,-0.60,-0.27,0
"ex2981",-0.43,0.07,-0.82,0.61,1.13,0
"ex2982",0.48,-0.02,-0.39,-0.50,1.17,2
"ex2983",0.29,-0.74,0.08,0.07,0.27,1
"ex2984",0.63,-0.34,0.32,-1.18,1.28,1
"ex2985",-0.96,1.07,-0.23,0.11,-0.44,2
"ex2986",-0.49,-3.00,0.11,1.06,-1.02,0
"ex2987",-0.07,1.09,-0.17,1.67,-1.19,2
"ex2988",-0.33,-1.78,1.69,-0.87,-0.92,1
"ex2989",0.13,0.86,-1.56,-0.27,-1.51,0
"ex2990",0.30,0.41,-0.65,-0.84,0.62,1
"ex2991",-0.30,-0.80,1.95,0.99,0.47,0
"ex2992",1.15,-0.09,0.75,-0.76,-0.99,2
"ex2993",-0.72,-0.08,-0.07,-0.08,-0.69,0
"ex2994",-0.07,-0.42,-1.20,0.68,0.77,1
"ex2995",-1.37,0.44,0.96,0.13,-0.83,2
"ex2996",0.26,-0.48,0.17,-0.55,-0.68,1
"ex2997",1.64,0.07,0.48,-0.50,0.04,1
"ex2998",0.57,-0.03,-0.11,-0.67,1.52,2
"ex2999",-0.55,-0.78,-0.25,0.84,-1.52,1
"ex3000",1.18,1.02,0.08,0.88,-0.50,2
"ex3001",-0.30,-0.61,-0.12,0.82,2.43,0
"ex3002",-0.98,-0.94,-0.41,0.82,-0.52,1
"ex3003",0.47,-0.16,0.83,0.35,-1.23,1
"ex3004",-2.52,1.34,0.23,0.12,0.48,1
"ex3005",-0.83,0.17,-0.68,-1.06,-0.67,0
"ex3006",0.24,-1.78,0.11,0.90,-0.13,2
"ex3007",1.28,-0.01,1.04,-0.10,0.40,2
"ex3008",-0.70,1.63,-0.31,0.28,-0.92,0
"ex3009",-1.78,1.23,-0.64,1.50,-0.41,0
"ex3010",0.70,-0.46,0.16,-1.32,-0.19,2
"ex3011",0.16,-1.00,-1.20,-2.61,-0.04,2
"ex3012",0.93,-2.74,-0.68,-0.13,-1.46,0
"ex3013",-0.03,-0.52,-0.24,-1.48,0.79,2
"ex3014",-0.33,1.11,0.30,0.68,0.62,2
"ex3015",-0.65,0.81,1.08,-0.36,1.04,1
"ex3016",1.64,0.54,-0.58,1.06,-1.25,1
"ex3017",-1.14,-0.12,-0.49,0.88,0.17,2
"ex3018",-1.19,-1.30,0.36,-0.65,-0.37,0
"ex3019",0.09,-0.42,-1.44,1.63,-0.06,2
"ex3020",0.82,-0.58,-0.62,1.93,-0.01,0
"ex3021",-0.03,0.25,-0.45,0.69,-1.07,0
"ex3022",0.40,-1.77,-0.57,-0.20,0.66,0
"ex3023",1.39,-0.38,-0.08,0.11,0.12,0
"ex3024",-0.02,0.13,0.59,-0.58,1.42,0
"ex3025",-1.42,0.20,0.04,1.02,-0.16,2
"ex3026",0.27,-0.51,1.39,-0.27,0.88,2
"ex3027",1.27,1.90,-0.09,-0.63,0.60,2
"ex3028",-1.00,1.50,1.14,0.27,0.09,1
"ex3029",-0.32,0.96,0.43,-0.33,1.02,1
"ex3030",0.16,-1.22,0.35,0.45,1.58,0
"ex3031",1.50,1.47,-0.81,0.16,-1.08,1
"ex3032",1.10,-0.18,0.44,-1.19,1.77,0
"ex3033",0.91,-0.28,-0.57,1.72,-0.75,2
"ex3034",-1.33,-0.65,-0.69,-1.25,2.54,2
"ex3035",-0.12,0.14,0.17,-0.69,-0.29,2
"ex3036",0.40,0.36,0.80,-0.44,-0.57,2
"ex3037",0.94,1.15,0.23,0.21,1.37,1
"ex3038",0.57,-1.05,-0.60,1.14,-0.56,0
"ex3039",1.06,0.74,-1.18,-0.11,0.06,1
"ex3040",0.13,0.72,0.27,-1.29,-1.56,2
"ex3041",0.76,0.02,0.07,0.17,0.54,1
"ex3042",1.54,0.73,1.91,0.02,0.29,0
"ex3043",0.02,-1.35,-0.95,0.49,-1.30,0
"ex3044",0.07,0.23,-0.72,0.32,-0.48,2
"ex3045",-2.01,-1.26,0.70,0.17,1.13,1
"ex3046",-0.76,0.54,-0.52,1.16,-0.71,2
"ex3047",0.64,0.31,0.64,0.75,-1.27,0
"ex3048",0.11,-0.00,-0.00,-0.11,0.12,2
"ex3049",1.18,-1.53,0.42,0.23,-1.06,0
"ex3050",-2.28,-1.07,1.63,-0.84,1.20,2
"ex3051",1.07,-1.47,0.16,1.22,-2.30,0
"ex3052",0.04,-0.08,1.57,-0.06,0.59,1
"ex3053",0.36,-0.28,-0.42,2.30,0.63,0
"ex3054",0.54,1.03,-0.48,-1.77,0.68,1
"ex3055",-1.10,0.62,-1.25,0.14,0.72,2
"ex3056",-0.42,-1.50,0.94,1.40,-0.63,0
"ex3057",0.15,0.45,0.25,-0.12,-0.48,1
"ex3058",0.46,-0.87,0.06,-0.54,0.02,2
"ex3059",0.89,-0.00,0.09,0.35,0.74,1
"ex3060",1.08,-0.10,-1.12,-0.35,-1.40,1
"ex3061",1.08,-1.27,2.18,-2.03,-1.85,0
"ex3062",-0.61,-1.10,-0.21,-0.78,-0.55,0
"ex3063",-1.29,1.04,0.68,-0.39,1.34,1
"ex3064",1.37,-0.25,0.15,0.60,0.10,1
"ex3065",0.64,-0.10,0.67,-1.46,-0.02,1
"ex3066",0.83,-0.74,0.12,-0.26,0.52,2
"ex3067",-0.95,1.12,-0.33,-0.72,0.06,1
"ex3068",-0.53,-0.68,0.08,-0.61,-0.05,0
"ex3069",-0.37,-1.18,1.10,-0.43,0.77,0
"ex3070",0.10,0.32,-0.83,0.74,0.88,1
"ex3071",-0.92,-0.76,0.58,-0.85,-0.17,2
"ex3072",0.74,1.59,-0.92,0.26,-0.81,1
"ex3073",1.02,-1.65,-1.96,1.12,-0.14,1
"ex3074",0.65,-1.50,-0.33,0.30,-0.98,2
"ex3075",-0.71,-0.91,1.06,-0.07,1.40,0
"ex3076",-1.48,-1.97,-0.35,0.46,0.00,2
"ex3077",-0.51,0.89,0.36,-1.32,0.00,1
"ex3078",0.31,1.20,0.75,0.14,0.74,0
"ex3079",-0.17,0.26,0.11,0.38,0.63,0
"ex3080",1.25,0.32,0.40,0.80,0.27,1
"ex3081",0.87,0.16,0.99,0.71,-0.15,2
"ex3082",-0.33,-2.32,1.01,0.15,-1.23,1
"ex3083",0.90,1.52,-0.59,0.38,-1.28,0
"ex3084",1.39,-0.08,-0.39,0.18,-0.74,1
"ex3085",-0.28,-1.61,-0.07,1.91,-0.78,1
"ex3086",-1.07,1.84,0.62,1.50,-1.12,0
"ex3087",-0.23,-0.74,-0.64,0.65,0.55,0
"ex3088",0.76,1.18,-0.10,-2.25,0.16,0
"ex3089",-1.58,0.32,-1.27,-0.96,-0.65,1
"ex3090",-1.60,1.14,-0.49,-0.43,-0.68,1
"ex3091",-0.82,-1.14,-0.19,0.13,0.57,0
"ex3092",-1.40,0.74,0.58,-0.17,-0.67,1
"ex3093",0.79,-0.78,-2.06,-1.08,-0.12,2
"ex3094",-0.82,-0.16,-0.94,0.69,-0.38,1
"ex3095",-0.98,1.07,-0.23,-1.89,0.67,0
"ex3096",-0.23,0.38,0.19,0.02,-0.21,0
"ex3097",0.04,-0.36,-0.75,-2.17,-0.98,0
"ex3098",0.40,1.80,0.32,0.11,0.80,1
"ex3099",-0.80,-0.66,0.21,-0.05,1.33,0
"ex3100",-0.52,0.28,-0.86,-0.69,0.38,2
"ex3101",-0.96,-0.93,-0.13,-0.62,-0.76,0
"ex3102",-0.16,-0.38,0.52,-0.30,-0.28,1
"ex3103",-0.69,0.62,-1.92,0.13,0.69,0
"ex3104",-0.59,-0.36,-0.07,-2.74,-3.75,2
"ex3105",0.30,-0.29,-1.14,0.57,1.48,0
"ex3106",0.10,-1.31,-1.09,-0.53,-0.15,2
"ex3107",-1.10,-0.48,0.11,-0.73,-0.45,0
"ex3108",0.90,-0.91,-2.68,-0.04,-2.90,0
"ex3109",0.57,-0.52,-0.20,0.06,-1.61,0
"ex3110",1.57,-0.59,-0.23,0.44,0.53,0
"ex3111",0.56,0.26,0.38,1.06,-1.15,2
"ex3112",-0.32,1.70,-1.17,0.63,0.38,0
"ex3113",-0.57,0.95,-0.80,-0.86,0.95,1
"ex3114",0.18,0.19,0.52,-0.81,-0.23,2
"ex3115",0.77,0.87,0.22,-1.29,-1.18,0
"ex3116",-0.33,-0.99,1.11,-1.07,-0.25,0
"ex3117",-1.23,-0.08,-1.29,0.20,1.82,2
"ex3118",-0.41,-0.62,1.30,2.01,-0.66,0
"ex3119",-1.21,0.58,-0.49,2.13,0.68,2
"ex3120",-0.87,1.12,-2.78,-0.16,-0.87,0
"ex3121",1.62,-0.49,-0.26,1.12,0.34,2
"ex3122",-1.18,-0.77,0.39,-0.31,-0.24,1
"ex3123",-0.13,0.61,0.01,1.15,1.47,0
"ex3124",-0.85,0.65,-2.32,0.51,-0.19,0
"ex3125",0.06,-1.65,-1.06,0.26,-0.05,0
"ex3126",0.67,1.22,-0.58,-0.99,-0.00,1
"ex3127",0.00,0.94,0.14,-0.04,-1.85,2
"ex3128",0.57,-1.81,-1.35,-0.42,1.86,0
"ex3129",0.08,1.75,-1.33,0.41,0.29,2
"ex3130",-1.71,-0.43,1.05,-0.21,0.36,0
"ex3131",1.61,0.21,0.21,1.07,1.31,1
"ex3132",-1.70,0.26,-1.00,-1.15,-0.99,0
"ex3133",0.35,1.39,0.57,-0.63,0.30,0
"ex3134",0.78,-0.84,-1.07,0.20,-0.26,2
"ex3135",-0.17,-0.95,-0.21,-0.26,1.10,2
"ex3136",-0.14,1.22,1.06,-0.95,0.88,2
"ex3137",-0.08,-0.27,-0.81,2.18,0.10,2
"ex3138",0.56,0.61,0.38,-0.18,0.91,2
"ex3139",0.18,-0.36,0.28,1.00,0.51,2
"ex3140",-1.05,1.51,0.09,1.40,-0.87,1
"ex3141",0.32,-0.13,-0.05,0.63,1.29,1
"ex3142",0.13,0.70,0.21,-1.34,-0.22,1
"ex3143",1.68,0.01,-0.18,-0.61,0.37,2
"ex3144",-0.36,-0.34,-0.60,-0.96,-1.62,0
"ex3145",0.48,0.63,-0.99,0.73,0.49,2
"ex3146",2.33,0.58,1.21,-1.94,-1.02,0
"ex3147",-1.13,0.15,1.12,-1.18,-0.15,1
"ex3148",-0.68,-0.20,1.12,-1.59,0.26,2
"ex3149",-0.94,0.02,0.25,0.48,-0.38,2
"ex3150",0.46,0.33,-0.81,-1.66,-0.01,2
"ex3151",0.31,-1.44,0.34,-1.03,-0.61,2
"ex3152",1.68,1.33,0.94,-1.51,0.07,2
"ex3153",0.26,0.28,1.08,-0.19,0.92,0
"ex3154",-0.70,-1.23,1.42,-0.49,-0.38,2
"ex3155",1.42,-0.90,-1.03,-0.03,0.81,0
"ex3156",0.22,-0.69,-0.31,-2.06,1.98,1
"ex3157",-0.13,-0.06,0.62,-0.58,-0.02,1
"ex3158",-0.60,-0.33,-1.19,-0.48,-1.22,0
"ex3159",-0.02,0.33,0.17,0.21,-1.10,2
"ex3160",-0.77,-0.15,-0.06,-1.33,0.18,0
"ex3161",-1.00,-1.09,0.58,1.17,-0.77,1
"ex3162",-0.43,-0.79,0.26,1.26,0.32,2
"ex3163",0.68,0.61,0.65,-0.70,1.25,2
"ex3164",1.29,-1.30,0.81,0.81,-0.26,0
"ex3165",-1.09,-0.76,-1.72,-0.86,-0.41,2
"ex3166",1.68,-1.74,1.31,-0.70,-0.78,0
"ex3167",-1.23,-0.22,-0.64,0.27,-1.09,2
"ex3168",0.37,-0.24,0.55,2.05,-2.19,0
"ex3169",0.75,1.61,0.38,0.12,0.39,2
"ex3170",0.33,1.01,-0.60,1.19,0.47,1
"ex3171",1.43,-0.87,-0.18,-0.94,-0.26,1
"ex3172",-0.16,-1.00,-0.43,1.06,-0.13,2
"ex3173",-0.22,-1.16,-0.87,0.25,-0.20,0
"ex3174",0.97,-0.82,0.45,0.50,-0.61,1
"ex3175",0.08,-0.92,-0.64,0.75,0.45,2
"ex3176",-0.76,0.64,-0.02,1.79,-0.86,2
"ex3177",-0.31,-1.01,-1.56,-0.37,-0.29,1
"ex3178",2.85,-0.51,0.80,1.20,0.60,2
"ex3179",-0.71,-1.46,-0.00,0.21,-0.15,1
"ex3180",1.46,-1.18,0.61,-0.87,-0.79,2
"ex3181",1.70,-1.68,-0.40,-0.99,0.68,0
"ex3182",0.07,1.41,-2.00,-2.04,-0.72,2
"ex3183",-0.49,-0.95,0.25,-1.15,0.36,0
"ex3184",-0.15,1.13,-0.51,0.75,1.58,1
"ex3185",-0.25,-0.28,1.11,0.57,-0.85,1
"ex3186",0.84,-0.21,-0.01,-2.58,-0.08,1
"ex3187",2.81,-0.34,0.64,-0.64,0.46,0
"ex3188",0.30,-0.99,-0.84,-0.57,-0.58,1
"ex3189",1.56,-0.33,-0.99,-1.63,1.08,2
"ex3190",-1.02,0.68,-1.62,-1.37,0.16,1
"ex3191",0.01,-1.08,0.89,-0.82,-0.17,1
"ex3192",-0.56,0.65,-1.19,0.37,0.24,1
"ex3193",0.73,0.74,-0.05,0.13,-0.37,2
"ex3194",1.30,-0.05,-0.68,1.05,-1.16,2
"ex3195",-2.52,0.18,-0.16,0.01,-0.67,2
"ex3196",-0.68,1.87,-0.07,-1.19,0.61,2
"ex3197",-1.68,1.80,0.85,1.55,0.72,2
"ex3198",-0.45,0.68,-0.35,-0.70,-0.78,1
"ex3199",0.40,-0.43,1.56,-1.55,1.62,0
"ex3200",-0.64,0.79,-0.24,-0.50,2.22,1
"ex3201",1.33,1.41,0.90,-0.57,0.34,0
"ex3202",0.44,-0.49,-0.28,0.09,-0.27,0
"ex3203",0.17,0.50,-0.31,-1.23,0.87,1
"ex3204",-1.58,0.62,0.75,-0.96,-1.06,1
"ex3205",-0.12,-0.83,1.49,2.57,2.14,1
"ex3206",-1.00,-0.03,-1.63,-0.38,0.41,0
"ex3207",0.93,-0.00,0.05,-0.72,0.21,0
"ex3208",-0.41,1.55,-1.05,2.58,-0.13,0
"ex3209",0.67,1.83,-0.58,0.96,-0.52,2
"ex3210",1.90,-0.78,0.76,0.41,-0.02,2
"ex3211",-0.05,-0.79,1.04,-0.34,-0.01,2
"ex3212",0.79,-1.11,0.93,-0.19,0.28,2
"ex3213",0.97,1.75,0.56,1.22,0.11,1
"ex3214",-0.62,-2.02,0.58,0.73,1.01,2
"ex3215",0.15,1.20,0.21,0.75,-0.73,1
"ex3216",-1.96,0.35,0.89,-0.15,0.90,1
"ex3217",0.57,0.07,0.81,0.29,-1.11,1
"ex3218",-0.97,-2.19,0.68,-0.43,-1.14,0
"ex3219",-1.65,-1.04,0.37,-1.45,1.74,2
"ex3220",0.44,-0.36,1.03,-0.34,0.56,1
"ex3221",-0.33,0.27,0.86,0.80,1.79,1
"ex3222",0.73,1.33,-0.09,-0.38,-0.74,2
"ex3223",1.37,-0.71,0.45,-0.76,-0.53,0
"ex3224",-0.52,0.89,-0.30,1.14,-0.20,0
"ex3225",0.64,0.61,0.69,0.13,-0.26,0
"ex3226",-1.15,-2.42,-0.96,-0.98,0.01,2
"ex3227",-1.41,2.18,-1.75,0.07,-0.39,0
"ex3228",-0.10,-1.31,0.19,1.96,0.08,1
"ex3229",0.63,-2.10,-0.33,-0.34,-0.63,1
"ex3230",-0.60,-0.80,1.23,-0.11,0.76,1
"ex3231",-0.14,0.87,0.94,0.32,0.44,2
"ex3232",0.41,1.30,-0.46,-1.90,-1.27,2
"ex3233",-0.69,-0.87,-1.34,-1.53,1.11,2
"ex3234",-0.81,-2.35,-0.32,-0.65,-0.42,2
"ex3235",1.14,0.60,0.96,0.04,-0.51,1
"ex3236",-0.29,0.07,-0.75,0.63,0.40,2
"ex3237",-1.20,0.16,-1.45,0.82,1.87,0
"ex3238",1.29,-0.03,-1.32,1.58,1.61,1
"ex3239",-0.84,-0.40,0.19,0.08,0.67,2
"ex3240",-1.34,1.02,0.29,-1.09,-0.88,2
"ex3241",-0.98,-1.73,-0.83,-1.47,0.88,2
"ex3242",-0.57,-0.44,-0.76,-0.76,0.97,2
"ex3243",-0.74,1.11,-0.52,-0.40,2.00,1
"ex3244",-0.87,-0.42,0.07,0.33,-0.97,2
"ex3245",-0.91,-1.16,-1.44,0.64,-1.29,2
"ex3246",-0.62,0.86,0.45,-0.97,0.51,0
"ex3247",0.63,-1.34,1.78,2.01,-0.18,0
"ex3248",-1.38,-1.44,0.61,1.51,0.05,0
"ex3249",1.41,1.28,-2.42,2.44,-2.59,1
"ex3250",0.58,0.77,-1.54,-0.95,0.53,0
"ex3251",-0.11,-0.24,-0.71,0.84,-2.21,1
"ex3252",-1.17,0.58,0.53,-1.10,0.38,1
"ex3253",-1.22,-1.54,-1.79,-0.33,-0.94,0
"ex3254",-0.04,0.58,0.61,2.20,-0.04,0
"ex3255",-1.28,0.83,0.06,0.04,-1.24,2
"ex3256",0.33,0.06,0.37,0.39,-0.19,0
"ex3257",-0.14,1.23,1.39,0.67,0.58,0
"ex3258",-0.32,0.44,0.64,0.53,-1.04,0
"ex3259",-0.39,1.01,1.47,-0.92,0.15,0
"ex3260",1.33,-0.39,-0.06,-0.70,-0.90,2
"ex3261",0.21,-0.65,-1.16,-0.36,-0.78,1
"ex3262",-0.95,-0.56,1.10,0.70,-0.62,0
"ex3263",1.04,0.56,-0.55,-0.90,0.47,0
"ex3264",-0.77,0.34,0.96,-2.11,0.63,0
"ex3265",-0.98,0.34,1.01,0.71,0.59,1
"ex3266",0.30,0.89,0.26,1.47,1.21,0
"ex3267",-0.78,-0.94,-0.99,-0.59,-0.64,2
"ex3268",0.83,-0.21,-1.47,-0.18,-0.36,1
"ex3269",0.77,-1.39,2.40,1.15,0.67,2
"ex3270",-0.16,-1.42,-0.94,-0.41,0.03,2
"ex3271",-1.77,0.22,0.88,0.09,0.12,2
"ex3272",1.01,-0.43,-0.62,-0.62,0.82,2
"ex3273",-2.77,-0.65,-0.85,1.64,-0.56,2
"ex3274",-0.48,0.04,0.02,-0.11,-1.16,0
"ex3275",1.10,1.28,-0.76,-0.28,-0.63,1
"ex3276",0.07,0.28,-0.79,0.46,-0.66,0
"ex3277",-0.33,-0.23,0.87,0.22,0.82,0
"ex3278",1.31,-1.05,-0.65,-1.34,-0.96,2
"ex3279",-0.79,0.42,-1.22,0.28,0.25,0
"ex3280",2.34,-1.52,-0.19,-1.10,-0.18,2
"ex3281",-0.27,-0.30,1.24,0.61,-0.88,1
"ex3282",0.95,0.23,0.84,-0.27,0.17,1
"ex3283",0.22,-2.17,1.28,-0.49,-0.79,0
"ex3284",-0.41,-1.22,-1.12,-0.07,-0.10,0
"ex3285",0.10,0.28,-0.72,0.43,1.12,1
"ex3286",0.48,-1.60,-0.77,1.11,0.53,2
"ex3287",-0.16,0.50,0.62,1.66,-0.71,2
"ex3288",0.39,0.70,-0.58,1.04,1.93,2
"ex3289",-0.64,-1.13,-0.41,-1.93,0.51,1
"ex3290",-1.91,-0.40,-0.44,-0.39,-0.18,2
"ex3291",-0.87,-2.06,-0.05,-0.42,-0.63,2
"ex3292",1.92,0.27,0.12,0.81,-1.59,2
"ex3293",1.80,0.15,-0.17,0.79,2.77,2
"ex3294",-0.27,1.09,0.40,-1.99,-1.50,1
"ex3295",-0.67,1.42,0.57,0.28,-0.37,2
"ex3296",-0.48,1.04,-0.50,-1.04,-0.63,0
"ex3297",-1.83,-1.16,-0.12,-0.65,0.19,1
"ex3298",-0.60,0.24,-0.13,-0.19,-0.22,1
"ex3299",2.06,1.35,0.67,-0.64,-1.63,1
"ex3300",0.43,-0.58,0.47,-1.16,0.32,0
"ex3301",0.91,0.33,-1.53,-1.24,0.53,2
"ex3302",-1.06,-1.12,0.43,-0.20,0.60,0
"ex3303",0.57,-1.28,0.24,-1.15,-0.38,1
"ex3304",1.98,-0.58,-0.04,-0.64,0.34,2
"ex3305",0.36,-0.03,0.36,-0.41,-1.24,0
"ex3306",-0.16,0.38,-2.86,-0.73,0.63,2
"ex3307",0.69,-0.88,2.45,-0.31,0.61,2
"ex3308",-0.98,0.92,-0.63,-0.13,-0.66,0
"ex3309",0.78,0.51,-0.56,-0.50,-2.88,2
"ex3310",0.14,1.41,1.05,-0.21,0.35,1
"ex3311",-0.31,-0.06,-0.24,0.11,-1.17,1
"ex3312",-1.17,-0.05,-0.58,1.38,1.39,0
"ex3313",0.02,1.02,0.92,0.53,-1.57,2
"ex3314",1.15,-0.48,-0.40,1.16,-1.29,0
"ex3315",0.92,1.04,-2.84,-0.04,1.55,2
"ex3316",0.54,-0.22,0.04,-0.69,0.06,2
"ex3317",-1.82,-1.14,0.75,0.14,-0.20,1
"ex3318",0.64,0.82,-0.49,1.10,-0.65,2
"ex3319",-0.54,0.83,0.48,-0.22,-1.54,2
"ex3320",0.64,-0.29,0.44,-0.38,-0.13,2
"ex3321",0.16,-0.47,-0.25,-0.66,0.53,2
"ex3322",-0.10,1.32,-0.47,1.87,0.57,1
"ex3323",2.03,-0.28,-1.53,1.15,0.96,2
"ex3324",-1.95,0.65,-0.98,0.00,0.06,1
"ex3325",-0.67,0.84,0.45,0.05,2.04,1
"ex3326",-0.48,0.87,0.37,-1.14,0.12,0
"ex3327",-2.08,-0.50,-0.07,0.75,-1.49,1
"ex3328",-0.46,-0.17,-1.12,-0.53,-1.55,2
"ex3329",-0.73,0.08,-0.55,-0.20,0.86,0
"ex3330",0.13,-0.73,-0.57,0.29,-0.54,0
"ex3331",0.08,0.89,1.77,-0.40,-1.62,1
"ex3332",-0.33,2.41,-0.17,0.51,0.97,2
"ex3333",0.28,-1.37,0.41,-0.33,-0.85,0
"ex3334",-0.27,0.06,1.66,-1.57,1.85,1
"ex3335",0.26,0.71,-0.52,-0.94,0.10,2
"ex3336",1.10,0.14,0.35,2.26,-1.36,1
"ex3337",-0.13,0.28,1.34,-1.15,0.37,1
"ex3338",-2.02,0.27,-1.39,-0.20,-1.70,0
"ex3339",-0.58,0.28,2.18,-0.89,0.66,1
"ex3340",-0.06,1.04,-1.70,0.89,0.09,2
"ex3341",0.80,1.06,1.22,0.77,-1.28,1
"ex3342",0.23,-2.69,0.95,-2.14,-0.06,2
"ex3343",0.24,-0.24,-0.79,0.40,-0.34,1
"ex3344",1.04,-0.86,0.42,-1.02,-0.35,1
"ex3345",0.35,-0.95,-0.97,0.77,2.33,0
"ex3346",-0.74,0.97,-1.51,-0.01,0.45,1
"ex3347",0.08,0.79,1.41,-0.85,0.15,1
"ex3348",0.22,0.00,-0.75,-0.43,-0.78,0
"ex3349",1.83,-0.03,-1.97,1.36,-0.82,2
"ex3350",-1.93,0.87,-0.30,1.07,0.07,0
"ex3351",-1.61,2.18,0.67,0.73,1.69,1
"ex3352",-0.61,-0.58,-0.90,-1.93,-0.76,0
"ex3353",0.59,-0.41,-0.07,-0.50,-1.21,2
"ex3354",-1.71,-0.74,-1.38,-0.14,-0.28,2
"ex3355",-1.36,0.97,-1.58,0.44,0.37,2
"ex3356",-0.14,0.33,0.53,-0.70,1.80,1
"ex3357",0.91,1.04,-0.75,-0.14,0.10,2
"ex3358",-0.49,2.68,-0.83,1.58,-1.36,0
"ex3359",0.08,0.67,1.51,0.13,-0.87,1
"ex3360",0.30,-0.68,0.45,-0.41,-0.00,0
"ex3361",-1.09,0.64,0.63,-1.11,0.78,0
"ex3362",0.95,0.26,-0.03,-0.31,1.32,1
"ex3363",-0.68,0.68,-0.92,-0.25,0.35,2
"ex3364",-0.58,-0.19,0.52,-2.03,-0.37,0
"ex3365",0.07,-0.47,-0.99,0.10,0.30,2
"ex3366",0.16,-1.13,-0.26,-1.14,0.28,0
"ex3367",-1.44,-0.13,-0.49,0.14,-0.05,0
"ex3368",1.18,-1.76,-1.26,-0.44,0.07,2
"ex3369",0.87,-0.01,-0.31,-0.95,-0.60,1
"ex3370",-0.13,-0.64,-1.16,1.30,-0.18,1
"ex3371",0.90,-1.74,0.19,0.49,0.51,0
"ex3372",1.01,0.17,1.52,0.39,-0.06,1
"ex3373",0.72,0.73,2.20,1.14,-0.09,2
"ex3374",-0.27,-0.62,0.16,0.73,-1.57,0
"ex3375",-0.69,-0.45,1.42,0.92,0.57,1
"ex3376",0.13,-1.38,1.69,0.58,-1.08,1
"ex3377",-1.00,-0.75,-0.51,1.00,-0.36,2
"ex3378",-0.61,-2.06,-0.40,-1.15,0.43,0
"ex3379",-1.30,0.52,-1.86,-0.46,-0.11,1
"ex3380",-0.34,-0.68,0.36,0.29,1.37,1
"ex3381",0.56,0.16,-0.34,0.28,0.26,2
"ex3382",1.41,1.95,0.85,0.59,1.21,0
"ex3383",-1.36,-1.10,-0.53,1.26,-0.55,1
"ex3384",0.30,-0.47,-0.85,0.68,0.45,1
"ex3385",-1.17,-1.55,1.46,-1.51,-0.51,2
"ex3386",-1.01,-0.89,2.71,0.39,0.94,0
"ex3387",1.24,-0.78,0.98,0.25,-1.48,2
"ex3388",0.25,-1.05,0.10,1.25,0.68,1
"ex3389",-1.69,0.22,-0.09,-0.18,-1.65,1
"ex3390",0.70,-0.51,0.55,-0.39,-1.57,2
"ex3391",-1.00,-1.17,-0.05,0.93,-1.25,0
"ex3392",0.18,-0.91,-0.51,-1.03,1.72,0
"ex3393",-1.17,0.30,-0.99,-0.63,1.20,0
"ex3394",-0.06,0.19,-0.17,0.23,0.31,1
"ex3395",0.01,0.27,0.76,-0.49,-0.90,1
"ex3396",0.75,-0.11,1.06,1.94,0.17,0
"ex3397",1.59,-0.81,1.54,-0.03,-0.44,0
"ex3398",-1.97,0.94,-0.29,0.01,-1.88,2
"ex3399",0.03,-1.86,3.20,-1.05,0.14,1
"ex3400",-0.24,0.26,-0.65,-1.02,-0.44,2
"ex3401",-1.36,-2.04,-0.20,-0.37,-0.33,2
"ex3402",-1.33,-0.02,0.00,0.13,-0.64,2
"ex3403",0.63,-0.38,-1.09,0.70,1.59,2
"ex3404",0.34,1.05,-0.49,0.97,-0.12,2
"ex3405",-1.37,-0.52,1.68,-0.09,-0.08,0
"ex3406",-0.44,0.23,-0.17,0.11,0.71,0
"ex3407",0.52,-1.20,1.27,1.38,0.10,0
"ex3408",0.26,-1.98,0.06,-0.02,0.31,1
"ex3409",-0.14,1.25,0.28,0.71,0.09,1
"ex3410",-0.34,0.67,0.13,0.35,-0.13,2
"ex3411",1.22,-0.10,0.55,0.62,2.71,1
"ex3412",-0.20,0.07,-1.11,1.73,2.29,2
"ex3413",0.37,-0.72,-0.94,0.07,2.02,1
"ex3414",0.82,-0.96,1.62,-0.44,0.55,1
"ex3415",0.74,-1.17,0.56,0.44,-0.13,2
"ex3416",-1.00,-0.31,-1.37,-0.26,-0.95,2
"ex3417",-1.14,-0.36,-1.05,-0.26,0.39,1
"ex3418",-0.94,0.40,-0.17,-0.10,-0.26,1
"ex3419",0.73,-0.19,0.76,0.08,-0.03,0
"ex3420",1.12,-0.96,-1.67,-0.44,-0.65,2
"ex3421",-0.51,1.22,0.69,-0.39,1.21,0
"ex3422",-1.86,0.28,0.08,-0.79,0.98,2
"ex3423",-0.58,-0.54,-0.05,-0.10,-0.91,2
"ex3424",0.16,-1.29,-0.23,0.27,0.87,2
"ex3425",0.14,-1.74,1.58,0.50,-0.04,2
"ex3426",1.13,-1.94,-0.01,-1.15,0.90,2
"ex3427",0.45,-0.69,-1.14,1.60,-1.52,2
"ex3428",-0.75,1.71,-0.59,-0.18,1.02,1
"ex3429",-0.71,0.33,-0.34,-1.34,0.57,1
"ex3430",-1.01,-0.04,-0.57,-1.54,0.25,0
"ex3431",-0.57,-0.29,0.63,0.93,-1.09,2
"ex3432",0.86,-1.16,-0.07,-0.40,1.12,2
"ex3433",0.42,-1.54,-0.23,0.14,-0.49,2
"ex3434",-0.46,-0.96,0.22,-0.71,1.37,2
"ex3435",-0.22,-0.20,-1.67,-0.60,1.14,2
"ex3436",-0.75,0.20,0.11,-0.71,0.99,1
"ex3437",-1.15,-0.43,-0.96,-0.17,-0.04,0
"ex3438",0.78,1.03,0.87,-0.76,1.74,1
"ex3439",-0.43,0.37,0.05,0.89,-0.80,2
"ex3440",-0.31,1.22,0.69,-0.40,-0.89,0
"ex3441",1.15,-1.71,-0.10,-0.22,1.30,1
"ex3442",1.29,1.25,-1.54,1.35,-0.26,0
"ex3443",-0.57,1.63,-0.45,-0.50,0.15,0
"ex3444",-1.20,-0.77,-1.41,-0.70,0.90,0
"ex3445",-1.07,-0.32,0.91,0.09,0.56,2
"ex3446",-1.94,-0.63,-0.86,0.14,-0.33,1
"ex3447",-0.06,0.90,-0.34,1.85,0.84,1
"ex3448",-0.62,-0.44,-0.76,1.02,-1.31,1
"ex3449",-1.18,-1.22,0.01,-0.90,0.07,1
"ex3450",-0.08,0.03,0.73,0.67,-0.05,0
"ex3451",-1.34,-0.45,-0.67,-0.40,-0.61,0
"ex3452",0.33,0.17,0.26,-0.20,1.10,2
"ex3453",1.87,0.32,-0.04,-1.43,-0.18,0
"ex3454",0.01,0.80,-1.63,-0.20,0.83,0
"ex3455",-0.61,-1.04,-0.49,-0.42,0.83,0
"ex3456",1.82,1.17,-0.37,0.19,-0.18,1
"ex3457",0.93,1.21,-0.12,-0.56,1.75,1
"ex3458",-0.29,0.97,-1.65,1.07,1.11,1
"ex3459",-1.10,0.13,0.27,-0.92,0.40,0
"ex3460",-2.34,0.86,-0.42,-0.64,0.17,2
"ex3461",0.78,-0.11,0.93,-0.76,-1.06,0
"ex3462",-0.44,2.16,-0.06,0.46,0.51,0
"ex3463",0.74,-0.28,1.27,-0.10,0.26,2
"ex3464",-0.09,-0.06,-1.14,0.73,0.05,2
"ex3465",1.37,-0.02,0.60,0.37,-0.07,1
"ex3466",0.06,-0.95,0.71,1.02,0.73,0
"ex3467",-0.76,-1.16,0.47,-1.25,1.06,2
"ex3468",2.76,0.30,-2.19,0.64,-2.47,2
"ex3469",-0.65,0.65,-2.85,0.37,1.23,0
"ex3470",-1.17,1.36,-1.52,0.46,-1.93,2
"ex3471",0.05,0.81,-1.00,-0.29,-1.23,0
"ex3472",-0.67,0.14,-2.25,-1.02,-0.82,1
"ex3473",0.92,0.13,-0.75,0.45,0.95,2
"ex3474",-0.69,-0.44,-0.66,0.92,1.23,0
"ex3475",0.40,-1.78,-0.64,1.40,0.05,1
"ex3476",0.96,-0.86,1.05,-0.41,0.74,0
"ex3477",0.20,1.07,0.47,0.03,-0.91,2
"ex3478",2.28,-1.10,1.40,-0.59,-0.68,1
"ex3479",0.21,-1.30,0.34,0.42,0.58,2
"ex3480",-0.48,-1.65,2.17,1.85,0.91,0
"ex3481",-0.07,-0.88,-0.33,-0.54,-0.49,2
"ex3482",-0.22,0.33,-0.32,-0.28,-0.13,2
"ex3483",-0.73,0.83,0.34,1.37,0.83,0
"ex3484",-0.67,-0.78,0.20,-1.66,1.55,1
"ex3485",-0.21,0.45,-2.06,-0.02,-1.70,1
"ex3486",0.13,0.55,0.36,1.00,-0.48,2
"ex3487",0.01,0.14,-0.38,-0.45,-0.46,0
"ex3488",-1.02,-0.26,0.05,1.56,-0.87,0
"ex3489",-0.54,-1.92,-1.47,1.46,0.48,2
"ex3490",-0.26,1.13,-0.07,0.42,-1.06,2
"ex3491",-0.64,-0.27,0.22,1.22,-0.44,1
"ex3492",0.00,1.15,-0.21,-0.40,-1.28,0
"ex3493",1.67,0.16,0.48,0.71,2.73,1
"ex3494",1.43,-0.85,-0.45,-0.76,0.51,1
"ex3495",-0.41,1.39,1.09,1.48,-0.46,0
"ex3496",0.67,0.09,0.24,-0.51,0.41,2
"ex3497",-0.80,-0.89,0.64,-0.01,-0.77,2
"ex3498",-1.53,-0.33,-0.26,-0.70,-0.87,0
"ex3499",0.11,-0.44,-0.23,-1.11,-0.62,2
"ex3500",-0.47,1.04,-1.33,-0.80,-0.43,0
"ex3501",1.09,-0.25,0.97,2.10,-1.54,2
"ex3502",0.59,0.41,0.20,0.77,-0.41,0
"ex3503",0.36,-0.18,-0.87,0.04,0.28,1
"ex3504",0.25,1.25,0.46,0.82,-1.58,0
"ex3505",0.41,-0.54,-0.57,-0.22,0.51,1
"ex3506",0.74,1.53,-0.00,-0.71,-0.52,0
"ex3507",-0.31,0.26,1.21,-0.14,-0.66,1
"ex3508",1.58,-0.44,0.95,-1.13,-0.75,0
"ex3509",-0.45,0.15,-1.12,-0.44,0.71,0
"ex3510",-1.58,0.41,-0.01,-0.33,0.56,2
"ex3511",-0.09,0.99,1.20,0.32,0.21,1
"ex3512",0.48,-0.22,0.67,0.36,0.57,2
"ex3513",0.15,-0.07,-1.15,0.27,-0.32,1
"ex3514",-0.28,1.18,0.33,-0.64,0.46,2
"ex3515",0.18,0.56,-0.51,-1.19,-0.16,1
"ex3516",-1.20,3.28,-0.38,-1.38,1.09,2
"ex3517",-2.03,1.33,0.64,-0.07,-1.21,0
"ex3518",0.12,-0.67,0.46,-0.39,0.73,0
"ex3519",-0.37,-0.27,1.96,-0.49,-1.09,1
"ex3520",0.01,0.07,-0.59,0.18,-0.07,0
"ex3521",-0.41,-0.41,-0.97,-0.02,-1.87,1
"ex3522",-0.57,-2.23,-1.11,-0.22,-1.90,2
"ex3523",-0.18,0.39,-0.12,1.61,-0.09,2
"ex3524",-1.43,-1.71,1.20,0.14,0.93,2
"ex3525",-1.16,0.94,-0.47,0.19,0.37,2
"ex3526",-0.49,-3.23,-0.77,0.20,1.86,2
"ex3527",-0.32,1.00,3.72,-1.23,0.45,1
"ex3528",-1.73,-0.94,-0.69,0.95,0.41,0
"ex3529",1.51,-1.98,0.94,2.20,1.55,1
"ex3530",-0.47,0.37,1.11,-0.51,0.17,1
"ex3531",0.66,1.41,0.29,-0.75,-0.04,2
"ex3532",0.17,-1.04,-1.02,0.07,-0.86,0
"ex3533",-0.49,-0.91,-1.82,-0.47,-0.33,1
"ex3534",1.74,1.83,0.61,-0.23,-0.60,2
"ex3535",-1.49,-0.17,2.70,-1.46,-1.38,2
"ex3536",0.81,0.79,-1.16,-1.09,-1.21,2
"ex3537",0.72,-1.05,-2.24,0.04,1.12,1
"ex3538",1.07,0.21,-0.94,-1.70,-3.01,2
"ex3539",0.96,0.05,0.20,0.69,-1.10,2
"ex3540",0.94,-0.00,-0.30,-0.04,0.16,2
"ex3541",0.72,-0.38,0.12,1.10,0.92,0
"ex3542",0.27,0.55,-0.53,0.54,-1.09,1
"ex3543",-0.02,1.37,0.01,0.64,0.72,0
"ex3544",0.65,-0.53,1.20,0.62,-0.98,0
"ex3545",0.70,0.95,-1.08,2.57,-1.34,2
"ex3546",0.74,-1.06,1.32,-0.72,0.10,2
"ex3547",-0.04,1.60,0.34,0.93,0.18,0
"ex3548",0.23,0.78,-0.53,-0.25,-2.45,0
"ex3549",-1.00,-0.82,-2.13,1.19,-2.34,2
"ex3550",1.14,-0.56,0.08,0.92,0.07,2
"ex3551",-0.84,0.09,0.14,-1.00,0.30,0
"ex3552",-0.29,-1.04,-2.49,-0.39,0.38,0
"ex3553",-0.40,0.52,-1.18,1.02,-0.31,2
"ex3554",-0.21,-1.10,-0.21,2.30,1.23,1
"ex3555",-2.38,-0.86,0.17,-0.74,-0.16,2
"ex3556",-1.23,-0.90,-1.18,0.74,-1.21,1
"ex3557",0.44,-1.18,-1.24,0.12,-0.10,1
"ex3558",1.12,-0.62,0.07,0.29,1.25,0
"ex3559",-0.70,-1.76,0.49,1.15,-1.86,2
"ex3560",0.56,-0.61,-0.10,-0.79,1.28,2
"ex3561",-0.12,1.15,-0.35,2.39,3.50,0
"ex3562",0.42,1.11,0.12,1.35,-0.63,2
"ex3563",-0.81,0.73,0.42,-0.62,1.15,0
"ex3564",-1.19,-0.29,0.19,0.17,1.84,0
"ex3565",2.05,1.80,2.10,0.07,-0.85,1
"ex3566",-0.81,0.54,1.19,-0.15,-0.84,1
"ex3567",-0.94,0.47,1.59,1.48,1.33,2
"ex3568",-0.81,-1.27,0.60,-1.53,0.68,2
"ex3569",0.02,2.08,0.78,1.03,0.61,2
"ex3570",1.17,-1.04,0.40,-1.23,-0.33,0
"ex3571",-0.29,0.42,0.56,0.61,0.10,0
"ex3572",1.05,0.20,1.23,-0.59,-1.03,0
"ex3573",-0.63,-1.21,-0.52,2.33,0.64,2
"ex3574",-2.19,-0.99,0.53,-0.99,1.31,1
"ex3575",-1.68,-0.84,1.07,1.14,0.37,2
"ex3576",1.13,0.19,0.75,-1.14,0.09,1
"ex3577",-0.15,-1.07,0.81,-0.43,0.99,1
"ex3578",1.45,-0.54,0.21,-0.88,-0.22,2
"ex3579",-0.41,-0.32,2.86,1.37,0.17,0
"ex3580",-1.56,-0.14,0.80,1.18,0.67,2
"ex3581",-0.84,-0.15,-0.75,0.27,-1.24,0
"ex3582",1.25,0.52,0.20,-1.12,1.84,1
"ex3583",-0.22,1.05,-0.09,0.67,-1.12,1
"ex3584",-0.90,-1.13,-1.42,-1.07,-1.33,2
"ex3585",0.46,2.03,-0.52,1.15,-1.30,1
"ex3586",-0.95,-1.22,0.49,-0.64,-1.24,0
"ex3587",-0.31,1.30,-0.49,0.29,0.29,1
"ex3588",1.97,-0.95,-0.01,1.09,-0.40,2
"ex3589",1.85,-0.47,-0.19,0.12,0.94,2
"ex3590",1.85,1.14,0.31,-0.82,1.02,2
"ex3591",-0.45,-0.29,-0.51,-1.30,0.74,2
"ex3592",-1.09,0.52,0.29,-0.42,0.67,0
"ex3593",-1.06,0.29,0.59,-0.29,0.77,1
"ex3594",-0.06,1.35,0.89,1.49,0.41,1
"ex3595",-0.51,0.67,1.52,-1.15,0.93,0
"ex3596",-0.41,-0.15,0.62,-0.83,-2.01,0
"ex3597",-0.70,0.31,-1.64,-0.04,1.36,1
"ex3598",1.03,0.68,-0.20,0.67,-0.00,2
"ex3599",-0.42,-1.73,-0.22,1.86,-0.10,1
"ex3600",-0.75,0.58,1.07,-0.14,-0.40,1
"ex3601",-0.61,0.45,1.90,-0.56,0.39,0
"ex3602",-0.81,0.02,-0.49,-0.50,0.77,1
"ex3603",-0.21,1.31,0.41,-0.70,0.99,0
"ex3604",-0.25,-0.14,0.60,-0.29,-0.34,0
"ex3605",-0.83,0.58,0.74,0.21,1.23,2
"ex3606",0.39,1.23,-1.39,0.28,-0.29,2
"ex3607",0.00,0.19,-0.45,1.31,0.23,2
"ex3608",-0.15,-1.16,0.79,0.51,-0.81,1
"ex3609",2.15,-0.58,-0.11,0.01,2.37,0
"ex3610",-0.72,-0.82,-1.81,2.79,0.45,2
"ex3611",0.05,1.14,0.75,-0.64,0.87,0
"ex3612",1.22,1.08,-0.83,-0.28,-0.10,0
"ex3613",0.07,-0.03,0.67,0.04,0.78,0
"ex3614",2.45,-0.38,-0.84,-1.02,-0.09,2
"ex3615",-0.34,-0.75,-1.39,1.67,-1.55,1
"ex3616",-0.63,-0.39,1.11,0.94,-0.92,2
"ex3617",0.56,-1.60,-1.35,-0.13,0.17,0
"ex3618",1.41,0.91,-0.45,-1.24,-1.61,1
"ex3619",1.37,0.39,-1.57,1.92,-0.31,2
"ex3620",-1.65,1.17,-0.29,0.54,1.22,1
"ex3621",-0.27,-0.53,0.36,-0.11,-1.23,0
"ex3622",2.23,0.51,1.18,-0.73,-0.85,0
"ex3623",2.50,0.68,-0.77,0.40,-0.62,2
"ex3624",0.51,-0.43,-1.41,-1.48,0.22,1
"ex3625",-0.30,-1.17,-0.57,-1.70,0.38,1
"ex3626",-1.13,0.40,-1.73,-0.69,-1.14,1
"ex3627",-0.23,0.63,0.86,0.46,0.52,1
"ex3628",0.31,-0.89,2.72,-0.50,0.63,1
"ex3629",-0.06,-1.96,0.29,-1.51,1.24,1
"ex3630",-0.68,2.06,0.58,-0.82,0.10,2
"ex3631",1.47,-0.26,0.75,-1.57,-1.23,2
"ex3632",-0.78,0.02,1.27,-1.02,-0.62,1
"ex3633",-0.19,-1.27,1.66,0.56,-2.28,2
"ex3634",-0.76,0.08,0.07,0.04,0.27,1
"ex3635",-0.53,-1.15,0.85,-0.97,-0.22,2
"ex3636",1.01,1.82,-0.63,0.48,0.21,0
"ex3637",1.70,-1.74,-0.44,0.05,0.39,2
"ex3638",1.26,0.74,0.89,1.48,1.69,0
"ex3639",-0.75,1.32,-0.58,0.55,2.06,0
"ex3640",0.94,0.89,-0.53,-0.48,0.14,1
"ex3641",0.72,-1.16,0.01,-0.33,1.43,1
"ex3642",-1.44,0.68,0.34,0.08,0.51,1
"ex3643",-0.27,-0.47,-0.43,0.63,0.42,2
"ex3644",-0.10,1.30,1.36,0.88,0.05,0
"ex3645",0.02,-0.77,1.65,-0.03,-0.23,1
"ex3646",0.10,-1.15,0.73,0.72,-0.26,0
"ex3647",-0.15,0.08,0.78,0.38,0.76,2
"ex3648",-2.42,0.47,0.67,-0.58,-0.57,1
"ex3649",0.94,0.85,1.07,-0.15,-1.00,0
"ex3650",-1.71,-1.13,0.55,-0.25,-1.26,1
"ex3651",2.35,-0.49,-0.89,-0.91,-1.26,0
"ex3652",0.54,-0.89,-0.98,-0.93,-1.15,1
"ex3653",-0.48,1.50,-1.10,-1.08,0.49,0
"ex3654",-0.52,0.26,0.46,0.16,-0.45,1
"ex3655",0.32,-2.09,0.88,-0.20,1.27,1
"ex3656",0.69,-1.66,-0.73,-0.55,0.80,0
"ex3657",0.11,-0.62,-0.21,1.00,2.26,1
"ex3658",2.71,1.96,0.27,0.59,-1.70,1
"ex3659",1.26,0.27,0.38,0.83,1.16,1
"ex3660",-0.45,-0.01,0.66,0.71,-0.04,2
"ex3661",-1.62,-1.60,-1.64,-1.06,0.03,0
"ex3662",0.80,-0.62,-1.05,0.49,0.54,1
"ex3663",-0.45,0.30,-0.24,-1.42,-0.72,0
"ex3664",0.14,-0.38,-0.78,-1.48,1.27,0
"ex3665",-0.40,-1.08,-1.28,2.48,-0.91,0
"ex3666",-0.53,-1.29,0.44,0.29,-0.76,2
"ex3667",-0.23,-0.86,0.02,-0.31,0.33,0
"ex3668",0.14,-1.98,1.18,-1.69,-0.91,1
"ex3669",1.26,1.72,-0.37,0.45,-0.27,2
"ex3670",-1.17,0.46,-0.61,2.51,2.25,2
"ex3671",0.27,-1.45,-1.27,-1.00,-0.88,1
"ex3672",-0.24,0.06,0.48,1.06,1.67,1
"ex3673",-1.03,0.10,-0.47,0.90,-2.24,2
"ex3674",0.90,0.88,0.69,0.45,1.04,2
"ex3675",-0.42,0.20,-1.63,-0.78,0.03,2
"ex3676",-1.07,-0.12,-0.54,-2.19,-0.52,2
"ex3677",0.06,0.04,-0.80,-0.27,-0.35,2
"ex3678",1.37,1.25,0.39,0.99,-1.10,2
"ex3679",-2.40,0.35,1.55,0.55,0.40,1
"ex3680",0.79,-3.02,-1.27,-0.31,0.78,0
"ex3681",-0.26,-1.30,2.06,0.61,-0.67,1
"ex3682",1.36,1.41,-0.81,-2.16,0.34,1
"ex3683",2.08,0.71,-1.51,-1.20,-0.98,0
"ex3684",-0.47,1.80,-0.80,-1.04,-0.19,2
"ex3685",-1.19,-1.29,-0.57,-0.05,1.56,0
"ex3686",-0.58,-0.06,-0.28,-1.42,0.27,2
"ex3687",0.23,-1.58,-0.12,-0.60,-1.85,0
"ex3688",0.51,0.59,-0.13,1.13,0.59,1
"ex3689",-2.59,1.46,0.00,0.39,-0.96,0
"ex3690",-0.11,0.65,1.17,-0.69,0.79,2
"ex3691",-1.07,-0.74,0.99,-0.36,0.63,2
"ex3692",0.96,-0.68,-0.37,-0.17,0.36,2
"ex3693",-0.39,0.21,0.62,0.25,-1.06,1
"ex3694",0.99,-0.03,-1.39,-1.46,-0.35,2
"ex3695",1.32,0.20,0.47,1.28,-0.80,1
"ex3696",0.30,-1.19,-0.86,-1.50,0.28,1
"ex3697",-0.24,0.41,0.82,-2.43,0.10,2
"ex3698",0.87,-1.39,-1.18,-0.08,-2.37,1
"ex3699",-1.15,2.38,-1.01,0.68,1.14,1
"ex3700",1.38,-0.02,1.65,-0.39,0.08,2
"ex3701",-0.25,-0.41,-0.78,1.40,-0.01,0
"ex3702",0.53,-0.03,0.96,0.46,1.08,2
"ex3703",-2.53,1.66,-0.99,-1.13,0.24,0
"ex3704",0.12,-1.14,-0.47,-0.85,0.75,2
"ex3705",0.06,-0.22,-0.62,0.56,0.33,1
"ex3706",0.98,-0.66,0.76,-0.54,0.04,0
"ex3707",0.61,0.10,-0.51,0.21,0.59,2
"ex3708",-0.48,-0.32,0.59,1.16,-0.92,1
"ex3709",1.61,-0.69,1.32,-1.21,-2.04,1
"ex3710",-0.03,0.08,-0.73,-0.67,-1.58,1
"ex3711",-0.14,-0.19,1.46,-2.35,-1.44,1
"ex3712",1.99,-0.90,-0.53,2.49,-1.65,0
"ex3713",0.82,0.88,0.97,-0.89,-0.78,0
"ex3714",1.31,-1.50,-0.84,0.95,-2.08,0
"ex3715",-0.64,1.14,-1.44,0.38,1.50,1
"ex3716",-0.62,-1.35,1.27,0.00,-0.97,0
"ex3717",-0.96,0.44,-0.10,-0.39,-0.72,0
"ex3718",-0.50,-0.88,-0.28,0.38,-0.22,1
"ex3719",-0.61,0.65,0.05,-1.38,-1.65,0
"ex3720",1.23,-0.76,-1.28,0.50,0.75,2
"ex3721",-1.09,2.03,1.33,-0.38,0.17,1
"ex3722",1.18,0.96,-0.71,0.47,0.59,0
"ex3723",0.06,-0.03,0.68,-0.69,0.38,2
"ex3724",0.04,-0.48,-0.85,-0.83,0.21,1
"ex3725",0.64,-0.03,-1.82,-0.53,-0.97,1
"ex3726",0.77,0.04,1.29,-0.73,1.23,2
"ex3727",-1.75,-1.00,1.98,-0.26,-0.21,2
"ex3728",0.77,0.48,-0.83,-2.08,0.76,2
"ex3729",2.13,0.10,-0.25,0.33,-0.11,0
"ex3730",-1.14,-0.36,-0.68,1.72,-0.42,0
"ex3731",0.90,-0.28,-1.17,-0.98,0.03,2
"ex3732",-0.54,-0.70,1.03,-0.09,-2.45,1
"ex3733",1.00,-1.48,-0.53,-1.12,-0.43,1
"ex3734",-2.14,-1.46,1.11,1.06,1.59,1
"ex3735",0.86,-0.21,0.96,-0.01,0.17,2
"ex3736",0.35,-0.00,0.21,-0.80,-0.27,1
"ex3737",-0.64,0.28,0.60,1.52,-1.02,2
"ex3738",0.02,1.75,-1.48,-0.62,-1.48,0
"ex3739",1.57,-1.50,-0.07,0.53,0.46,0
"ex3740",-0.38,0.14,0.19,-0.61,0.07,2
"ex3741",-1.03,-0.55,-0.23,0.04,0.69,1
"ex3742",0.35,1.40,1.20,1.16,0.09,2
"ex3743",-1.17,0.72,-1.16,-0.19,-0.24,1
"ex3744",1.67,-1.26,0.56,-2.97,-0.10,2
"ex3745",-0.26,0.93,0.82,0.50,-0.17,1
"ex3746",-0.27,-0.14,-1.57,0.57,0.34,1
"ex3747",-0.82,0.06,0.22,0.40,0.79,2
"ex3748",1.42,-0.16,0.25,-1.26,0.59,1
"ex3749",1.01,0.06,-1.81,0.32,1.69,1
"ex3750",0.68,0.30,-1.60,-1.02,-1.17,0
"ex3751",-1.80,1.67,-0.28,0.61,-0.46,2
"ex3752",0.57,-0.17,0.16,0.31,-0.50,0
"ex3753",-0.48,-0.54,-2.16,0.91,0.15,0
"ex3754",0.37,-1.17,-1.55,1.33,-0.73,2
"ex3755",-0.22,-0.66,0.71,-0.47,2.22,1
"ex3756",0.67,0.19,0.38,1.58,0.47,0
"ex3757",0.26,0.36,-0.43,-1.16,1.69,0
"ex3758",2.05,-0.75,2.02,-1.72,0.42,1
"ex3759",-1.25,-0.74,0.43,-0.12,-0.78,1
"ex3760",-0.22,1.45,0.30,0.85,0.75,2
"ex3761",-0.12,0.39,-0.51,0.63,-0.49,1
"ex3762",0.33,0.85,-0.18,1.72,0.20,2
"ex3763",1.07,-0.64,0.76,-0.03,1.44,0
"ex3764",-1.47,-1.02,1.63,-0.61,2.23,2
"ex3765",0.25,-2.17,1.83,-0.89,-0.60,2
"ex3766",-0.16,-0.50,0.69,-0.25,0.30,1
"ex3767",-0.30,-0.41,-0.02,-1.09,-0.04,0
"ex3768",-1.72,0.04,1.01,0.76,-0.88,2
"ex3769",0.61,-2.22,-1.45,-0.36,1.73,1
"ex3770",-0.81,0.85,-2.27,-0.08,1.19,1
"ex3771",-0.38,-1.76,1.41,-0.11,0.67,1
"ex3772",0.33,1.08,-0.77,-1.44,0.59,2
"ex3773",0.03,0.05,-1.29,-0.05,1.55,2
"ex3774",0.62,1.44,2.07,0.23,1.61,2
"ex3775",-0.21,0.08,1.28,0.97,-1.98,2
"ex3776",-1.34,0.35,0.58,-0.59,-0.28,0
"ex3777",0.19,-2.54,-0.73,-1.19,-0.61,2
"ex3778",0.69,1.43,-1.00,0.12,1.04,2
"ex3779",-0.87,0.22,2.07,-2.16,-1.28,1
"ex3780",0.41,1.18,0.50,0.97,-0.07,2
"ex3781",0.06,0.08,-0.28,-0.92,-0.08,0
"ex3782",2.31,0.34,0.70,-0.09,-1.25,2
"ex3783",-0.63,0.15,-0.17,-1.38,-0.74,2
"ex3784",0.11,-0.75,-0.78,0.09,0.55,2
"ex3785",1.40,0.68,-0.86,1.42,0.05,1
"ex3786",-1.14,-0.04,0.58,0.85,0.50,1
"ex3787",-0.90,-0.24,-0.69,-0.09,-1.12,1
"ex3788",1.34,1.27,-1.37,0.07,-0.48,2
"ex3789",-0.51,1.38,-2.85,1.62,1.18,0
"ex3790",0.91,-0.01,0.49,-0.31,-1.59,1
"ex3791",-0.06,0.43,-1.15,1.49,2.66,0
"ex3792",1.27,0.58,0.89,-0.56,2.02,1
"ex3793",-0.88,1.14,1.15,-0.85,-0.06,2
"ex3794",0.50,-0.55,-1.74,-0.40,-1.20,0
"ex3795",0.33,-0.04,-0.00,0.25,-0.04,1
"ex3796",0.29,-1.28,0.32,0.37,1.01,1
"ex3797",-1.73,-1.61,0.25,1.73,0.53,0
"ex3798",-0.42,-1.45,1.11,-0.86,-0.65,2
"ex3799",-1.25,0.25,0.03,1.44,0.59,1
"ex3800",-1.08,-1.64,-0.05,0.72,0.09,2
"ex3801",-0.50,-0.02,0.47,1.09,-0.21,0
"ex3802",-0.48,0.39,1.99,0.75,-0.44,1
"ex3803",-0.44,-0.44,-1.87,0.56,-0.50,2
"ex3804",0.04,-0.95,-1.75,-0.98,-1.09,0
"ex3805",-0.24,0.89,-0.40,1.18,1.66,1
"ex3806",-1.01,-0.19,1.27,-0.62,0.43,1
"ex3807",0.54,0.27,0.34,-1.24,-0.51,1
"ex3808",0.71,0.40,0.51,0.51,-0.80,2
"ex3809",0.56,-0.72,0.07,-0.42,-1.24,2
"ex3810",-0.35,-0.29,1.15,-0.83,-1.66,2
"ex3811",0.23,1.56,0.32,0.25,-0.68,0
"ex3812",1.07,-0.53,0.13,0.17,0.78,1
"ex3813",0.19,0.17,1.25,1.21,-1.03,0
"ex3814",-0.26,-1.20,1.16,-0.11,0.65,1
"ex3815",-0.45,-0.15,-1.92,-2.01,-1.08,0
"ex3816",0.69,-0.07,-0.17,-0.48,-0.40,2
"ex3817",-0.47,-0.77,0.94,0.10,0.92,2
"ex3818",0.52,0.82,0.22,-0.71,-0.07,2
"ex3819",-0.79,0.87,0.19,0.14,-0.12,2
"ex3820",-0.32,-0.98,1.18,0.98,1.08,0
"ex3821",-0.73,-0.87,-0.21,0.37,-0.46,0
"ex3822",0.44,-0.85,-0.24,-1.20,-0.14,1
"ex3823",0.07,-0.40,0.61,0.57,-1.15,0
"ex3824",0.26,1.52,-0.98,-0.37,0.72,1
"ex3825",0.17,-1.42,-0.03,1.24,-0.44,2
"ex3826",0.49,0.51,-0.11,2.27,-0.47,2
"ex3827",0.01,1.52,0.42,-0.32,0.17,1
"ex3828",-0.51,1.70,-0.65,-0.11,1.69,0
"ex3829",0.12,-1.55,0.18,-0.46,2.23,2
"ex3830",-1.32,-0.71,0.21,-1.25,-0.73,1
"ex3831",-0.38,-1.49,-0.60,0.63,0.40,1
"ex3832",-0.51,2.04,1.11,-1.62,0.86,0
"ex3833",-0.32,1.43,1.45,-0.48,1.31,2
"ex3834",-0.85,-0.27,-0.41,-1.57,0.81,1
"ex3835",-0.65,0.91,-0.93,-0.38,0.63,1
"ex3836",-0.26,-0.36,-0.24,-0.23,-1.03,1
"ex3837",-0.82,-1.72,0.06,0.23,-0.97,2
"ex3838",-0.58,-0.53,-2.38,0.78,-1.51,2
"ex3839",-0.35,1.08,0.53,-1.17,0.32,1
"ex3840",-0.40,-1.75,-2.18,-1.11,-0.52,2
"ex3841",-0.94,-0.29,-1.62,-0.75,-0.47,2
"ex3842",0.23,0.53,0.21,0.14,0.25,1
"ex3843",0.78,-0.11,1.29,-0.58,0.27,0
"ex3844",1.20,0.15,0.12,-0.93,-1.82,1
"ex3845",-0.30,0.03,1.47,0.32,-0.30,0
"ex3846",-0.39,1.51,0.78,-2.61,-0.25,2
"ex3847",0.26,-0.08,0.12,-0.20,-0.16,2
"ex3848",0.58,-1.62,0.21,0.96,0.23,0
"ex3849",1.25,0.21,-0.58,0.12,1.00,0
"ex3850",0.63,1.47,-1.77,-1.33,1.69,2
"ex3851",1.17,-0.40,-1.14,-0.09,-0.44,0
"ex3852",0.03,-0.69,-0.22,0.64,0.49,1
"ex3853",0.68,-0.40,1.68,-1.35,0.40,2
"ex3854",1.34,-0.81,0.01,-1.13,-0.83,1
"ex3855",0.34,-1.08,1.04,0.46,2.03,0
"ex3856",1.34,-0.12,-1.69,1.18,0.01,0
"ex3857",1.75,-1.07,0.05,0.51,-0.69,0
"ex3858",2.51,1.23,-1.61,0.74,0.16,1
"ex3859",1.05,-0.03,0.36,0.48,0.11,1
"ex3860",0.04,0.24,-0.78,0.21,0.50,1
"ex3861",-0.01,1.34,-0.64,-1.02,0.01,1
"ex3862",-1.40,0.48,-0.60,-2.27,1.43,1
"ex3863",0.00,0.31,-1.05,-0.15,0.40,1
"ex3864",1.36,-0.93,-0.31,0.04,-0.32,0
"ex3865",-0.52,-0.90,-0.91,0.24,0.84,1
"ex3866",-0.73,1.24,-0.06,-0.85,0.35,1
"ex3867",0.01,-0.32,0.61,-0.69,-0.24,2
"ex3868",0.36,-0.52,0.51,0.49,-1.09,0
"ex3869",-0.56,-1.38,-2.34,-0.02,1.72,2
"ex3870",-0.05,-0.21,0.50,-2.27,0.06,1
"ex3871",0.71,-0.97,-0.07,0.67,-0.36,0
"ex3872",-0.79,0.41,-1.62,-0.09,-1.78,2
"ex3873",-0.41,-0.44,-0.90,0.41,-0.59,0
"ex3874",0.91,0.66,0.41,-0.04,1.18,2
"ex3875",-1.09,-2.30,-0.92,1.56,0.13,0
"ex3876",-1.16,0.11,-1.53,0.09,0.26,1
"ex3877",-0.49,-0.71,1.10,-0.62,0.08,0
"ex3878",-0.78,1.86,1.05,2.19,-0.09,2
"ex3879",-0.08,0.05,-0.34,-1.02,-0.04,2
"ex3880",0.88,0.99,-1.67,1.74,0.94,1
"ex3881",-2.18,0.55,1.49,0.90,1.68,0
"ex3882",0.29,0.72,-0.12,-0.72,0.02,0
"ex3883",0.13,1.23,-0.59,-1.53,-1.11,0
"ex3884",0.53,-2.17,-1.64,-1.21,-0.94,0
"ex3885",-0.71,-0.69,2.20,-1.01,-0.68,0
"ex3886",1.35,-0.25,-0.35,-0.55,0.54,2
"ex3887",-0.96,1.45,1.12,0.51,1.50,1
"ex3888",-0.88,-1.05,0.97,0.63,0.19,1
"ex3889",0.66,1.55,-0.41,-0.05,0.24,2
"ex3890",2.16,0.69,-0.83,0.15,-0.76,2
"ex3891",-1.59,-2.21,0.89,-0.23,0.83,2
"ex3892",0.31,1.25,1.18,1.28,-0.17,0
"ex3893",-0.66,-0.05,-1.78,-0.45,0.34,2
"ex3894",0.46,-0.59,-0.48,0.80,0.53,1
"ex3895",1.42,-1.09,0.02,1.39,-1.29,1
"ex3896",-0.42,0.05,-0.28,-1.96,0.30,0
"ex3897",-0.10,-1.06,0.94,0.19,-0.07,1
"ex3898",0.83,-1.91,0.71,-1.52,-0.70,0
"ex3899",-0.13,1.16,-1.48,-0.60,0.49,2
"ex3900",0.31,1.13,-0.59,1.16,-0.08,2
"ex3901",-1.91,0.88,-0.91,-0.13,0.53,1
"ex3902",-1.14,0.39,-0.47,0.95,-0.21,0
"ex3903",-0.59,-0.25,-0.44,1.13,1.17,0
"ex3904",0.67,-0.27,-0.90,0.15,0.81,1
"ex3905",0.22,1.63,-0.54,0.04,-0.35,0
"ex3906",-0.21,-0.26,-0.05,1.07,-0.62,2
"ex3907",-1.85,-0.05,0.98,-0.13,-0.12,2
"ex3908",1.57,-1.14,-0.08,0.07,1.08,0
"ex3909",0.65,0.30,-1.43,0.50,2.02,1
"ex3910",-0.30,-1.33,-0.09,-0.60,-0.51,1
"ex3911",-0.55,-0.08,1.10,-1.31,0.43,1
"ex3912",-0.23,0.54,-0.85,0.18,-0.19,0
"ex3913",-1.57,-0.06,-1.00,-0.75,0.08,0
"ex3914",0.54,-0.95,-0.83,0.11,0.02,2
"ex3915",0.28,-0.47,-0.25,-0.73,-0.70,2
"ex3916",-0.46,-0.38,-0.94,0.97,0.51,1
"ex3917",-1.45,0.74,1.22,0.59,-0.04,2
"ex3918",-1.64,0.40,-0.38,-0.05,-0.45,1
"ex3919",0.03,0.20,-1.02,0.35,-0.35,0
"ex3920",0.90,1.22,1.30,0.83,-0.38,2
"ex3921",-0.53,-0.40,-0.43,-1.15,0.69,1
"ex3922",-1.82,-1.00,-0.57,-0.72,0.46,2
"ex3923",-0.03,-0.28,0.13,-0.20,0.51,2
"ex3924",-3.51,0.61,0.31,-0.58,0.13,0
"ex3925",-0.84,0.36,-0.58,0.58,0.65,2
"ex3926",-0.67,1.27,-1.36,-0.51,1.60,0
"ex3927",2.51,-0.03,0.62,-1.72,-0.35,1
"ex3928",1.68,1.18,-0.60,-0.10,1.36,2
"ex3929",-0.74,0.48,-0.74,-1.12,-0.51,0
"ex3930",-0.63,0.45,0.18,0.09,2.11,0
"ex3931",-0.09,-0.85,0.18,-0.51,1.79,2
"ex3932",0.58,1.59,0.08,1.03,0.05,2
"ex3933",0.84,-1.27,-0.23,-0.41,0.74,1
"ex3934",0.26,1.21,-0.63,-1.23,-1.20,0
"ex3935",-0.55,-0.15,0.36,-0.37,0.16,1
"ex3936",-0.48,-1.20,0.79,-0.52,1.53,2
"ex3937",-0.55,-1.21,0.71,0.43,1.61,1
"ex3938",0.71,0.07,-0.22,0.14,-1.12,1
"ex3939",1.00,0.63,-0.68,0.48,0.50,1
"ex3940",0.58,-0.91,-1.09,-2.07,-0.90,0
"ex3941",-1.65,0.07,1.57,0.73,-1.31,2
"ex3942",-0.80,-0.92,2.20,0.66,-0.54,0
"ex3943",-0.12,-0.89,-0.22,-1.17,-0.37,1
"ex3944",1.22,0.07,-0.22,0.12,0.70,1
"ex3945",-0.25,0.69,-0.42,0.39,1.71,2
"ex3946",-0.28,-1.95,0.42,1.26,-0.43,2
"ex3947",-0.19,0.00,1.14,1.03,-1.92,0
"ex3948",0.64,-1.13,-1.01,0.76,0.31,1
"ex3949",0.33,0.82,-1.77,0.42,0.63,0
"ex3950",0.53,0.99,1.04,0.18,-0.14,2
"ex3951",-1.81,1.94,-1.37,-0.30,0.37,1
"ex3952",-0.97,0.14,0.33,1.52,-0.80,1
"ex3953",2.32,-0.72,1.12,0.00,-1.26,1
"ex3954",0.05,2.11,0.44,0.44,-0.53,0
"ex3955",0.05,-0.01,-0.74,0.24,0.30,1
"ex3956",-2.01,1.92,0.89,0.26,-0.19,0
"ex3957",0.56,-0.62,-0.35,-0.84,-0.81,2
"ex3958",-0.90,-0.20,1.72,-0.14,-1.94,0
"ex3959",-1.34,0.12,-0.85,0.49,0.92,1
"ex3960",-1.09,-1.10,-0.23,0.51,0.34,1
"ex3961",2.22,0.45,0.74,-1.08,0.42,1
"ex3962",-2.34,0.55,-0.59,-0.03,-0.72,0
"ex3963",1.43,-0.79,0.27,-0.77,0.27,0
"ex3964",-0.51,-0.27,0.98,-0.05,0.44,1
"ex3965",2.03,0.95,-1.46,-1.67,0.11,0
"ex3966",-0.60,2.35,1.32,0.60,2.59,2
"ex3967",-0.96,-0.99,0.79,-1.39,0.78,2
"ex3968",-0.55,0.52,-0.74,0.15,1.04,0
"ex3969",0.91,0.52,1.71,2.26,-0.25,1
"ex3970",-0.74,-2.27,1.00,-0.13,1.04,2
"ex3971",1.57,0.40,0.80,0.04,0.36,1
"ex3972",0.95,0.21,-0.13,1.22,1.62,0
"ex3973",0.27,1.02,0.97,-0.32,-0.65,1
"ex3974",-1.35,-1.24,0.84,-0.61,0.88,1
"ex3975",-0.45,0.14,-0.29,-1.25,1.46,0
"ex3976",0.31,-0.90,-1.52,0.71,-0.82,2
"ex3977",-0.22,-0.18,0.98,1.79,0.24,1
"ex3978",-1.73,-0.82,-0.80,-0.98,-0.37,0
"ex3979",-0.32,-0.47,-1.51,0.77,1.11,1
"ex3980",-0.42,-0.76,-0.32,0.89,-0.42,2
"ex3981",-0.60,-0.87,0.87,1.05,-0.32,1
"ex3982",-0.70,0.95,-0.73,-0.16,-0.17,0
"ex3983",-1.21,2.19,-1.80,0.87,-1.04,0
"ex3984",0.29,-1.96,-0.29,-1.87,0.07,0
"ex3985",-0.84,-0.04,-0.46,-0.04,-2.20,2
"ex3986",0.89,-1.29,0.62,0.65,-0.10,1
"ex3987",0.07,-0.84,-0.76,0.86,1.51,2
"ex3988",-1.52,0.00,0.98,0.64,-0.19,1
"ex3989",-0.99,-0.70,0.41,0.39,-0.22,2
"ex3990",1.03,0.59,-0.51,-1.41,-0.46,2
"ex3991",0.21,-0.86,-0.60,0.62,1.03,2
"ex3992",-0.63,-1.00,-0.95,0.26,-1.04,1
"ex3993",-1.26,2.54,0.93,-0.06,1.46,1
"ex3994",-0.23,-2.88,-0.65,0.81,-0.33,1
"ex3995",-0.82,0.84,0.12,1.22,2.23,1
"ex3996",0.69,-1.28,0.15,0.36,-0.55,1
"ex3997",1.55,1.12,0.11,-0.16,-0.27,1
"ex3998",0.06,0.99,0.30,0.15,-0.17,2
"ex3999",-0.55,-0.17,-1.10,1.43,1.39,0
"ex4000",-1.59,-2.05,1.24,-0.80,1.34,2
"ex4001",0.13,0.20,-0.65,-0.37,-1.23,1
"ex4002",-0.87,0.60,-1.10,-0.22,0.84,2
"ex4003",0.54,-1.21,0.96,0.93,0.45,1
"ex4004",0.38,-0.82,0.75,-2.34,0.07,2
"ex4005",0.81,-0.14,-1.13,-0.29,1.00,0
"ex4006",-0.30,0.67,-0.60,0.62,-0.74,2
"ex4007",-0.57,-0.13,-1.00,1.45,0.69,0
"ex4008",2.15,0.11,0.07,-1.38,-1.09,2
"ex4009",-0.06,-0.35,-1.81,-1.75,0.95,0
"ex4010",-1.85,0.21,-0.78,-0.76,1.67,2
"ex4011",0.97,0.36,-0.37,1.32,-1.10,0
"ex4012",-0.04,0.02,-0.85,0.93,-0.81,0
"ex4013",-0.27,0.99,0.19,-0.98,0.76,2
"ex4014",-1.71,0.01,1.12,1.68,0.43,0
"ex4015",-1.16,-0.03,-0.30,0.79,-0.65,0
"ex4016",0.09,-0.96,0.12,1.72,0.44,1
"ex4017",-0.52,1.84,-1.51,1.67,1.08,2
"ex4018",-0.55,-0.30,1.04,-0.46,0.10,2
"ex4019",1.24,-0.30,1.34,1.48,-1.96,2
"ex4020",0.01,-0.88,-1.55,0.16,1.45,2
"ex4021",1.43,-0.17,0.11,1.57,0.59,0
"ex4022",0.30,0.45,0.01,-1.38,-0.82,1
"ex4023",1.05,-0.52,-0.42,-1.67,0.91,0
"ex4024",0.54,0.94,1.49,-1.54,1.01,2
"ex4025",1.69,0.04,0.72,-2.22,-0.07,2
"ex4026",0.97,-0.17,1.21,-0.46,0.74,2
"ex4027",0.48,0.95,0.77,-0.88,-0.04,0
"ex4028",-0.14,1.50,-1.39,-0.79,0.71,1
"ex4029",-1.57,-1.32,-0.85,-0.28,0.51,1
"ex4030",0.59,-0.50,0.76,-0.05,0.86,0
"ex4031",-1.87,-1.10,-1.49,0.69,-0.41,1
"ex4032",2.08,1.69,-1.04,-1.13,-0.04,1
"ex4033",1.10,0.34,-1.74,0.36,-0.15,0
"ex4034",-1.89,0.12,0.45,-0.44,-0.38,2
"ex4035",0.03,2.18,0.69,-0.04,-0.97,1
"ex4036",0.12,1.46,-0.02,-0.65,-0.54,2
"ex4037",1.98,-0.86,-0.84,0.46,-0.77,0
"ex4038",-0.07,2.02,0.81,2.75,1.43,0
"ex4039",0.55,0.64,-1.24,-0.11,-0.79,2
"ex4040",-0.38,-0.03,-0.92,-0.27,1.51,0
"ex4041",1.76,-0.15,-0.50,0.69,-1.89,2
"ex4042",0.64,-1.82,-1.54,1.63,-0.01,0
"ex4043",-0.93,-0.39,-1.18,-1.27,-0.81,2
"ex4044",0.15,1.07,-2.36,0.46,0.30,2
"ex4045",-0.37,0.29,0.56,-0.06,-0.47,1
"ex4046",-0.04,0.64,-1.08,2.60,0.05,0
"ex4047",-0.16,-0.36,-0.01,-0.87,-0.42,0
"ex4048",-0.50,1.09,-0.02,0.22,-1.99,0
"ex4049",0.44,0.15,-0.05,0.76,-2.12,1
"ex4050",-0.44,0.54,-0.25,-0.55,1.34,0
"ex4051",2.11,1.36,0.42,1.00,-0.63,2
"ex4052",0.56,1.35,1.09,1.69,-0.51,1
"ex4053",-0.32,0.57,-0.27,1.66,0.03,0
"ex4054",1.12,-1.04,1.47,-0.44,-1.61,2
"ex4055",-0.61,0.65,0.72,0.02,-1.23,2
"ex4056",1.00,-2.23,-1.50,1.59,-1.37,2
"ex4057",1.38,-1.20,1.81,0.32,0.45,2
"ex4058",0.43,1.14,0.10,1.75,0.85,1
"ex4059",0.62,-0.92,0.44,2.91,-0.06,0
"ex4060",0.67,0.74,0.76,-1.47,-0.13,1
"ex4061",0.55,-0.30,-0.22,0.76,0.93,2
"ex4062",-0.69,-0.60,0.69,-0.35,-0.04,1
"ex4063",0.72,-1.07,1.72,-0.12,-0.19,1
"ex4064",-0.15,-0.32,-0.32,-0.87,1.70,2
"ex4065",-1.12,0.62,0.46,0.59,0.73,2
"ex4066",-1.21,-0.40,0.94,-1.50,1.20,2
"ex4067",0.61,-1.06,1.48,-0.34,-0.02,2
"ex4068",1.33,0.31,1.92,0.02,0.33,0
"ex4069",0.09,2.04,-0.19,-1.16,0.74,1
"ex4070",0.61,0.45,0.58,1.60,-0.62,2
"ex4071",1.83,-0.52,0.27,0.17,0.47,2
"ex4072",-1.29,1.21,-0.27,0.17,1.85,0
"ex4073",-0.70,0.08,-1.87,2.19,0.18,2
"ex4074",0.09,-0.17,-1.20,-0.79,-0.35,1
"ex4075",0.76,-0.50,0.61,-0.71,-0.10,1
"ex4076",1.51,-1.04,-0.92,-0.66,1.49,2
"ex4077",0.09,-0.30,0.24,0.41,-0.31,2
"ex4078",1.52,-0.24,-0.20,-0.16,-0.34,2
"ex4079",-0.17,-0.08,0.68,1.29,0.74,0
"ex4080",-0.51,2.07,0.24,0.84,1.70,2
"ex4081",0.46,-1.11,1.51,0.98,1.08,0
"ex4082",-0.52,1.64,0.68,0.04,1.63,0
"ex4083",-0.93,0.44,1.06,-0.21,-1.98,1
"ex4084",-1.52,0.11,0.30,0.79,1.55,1
"ex4085",1.22,1.86,0.22,0.13,-0.97,1
"ex4086",1.99,-1.88,1.70,0.52,-0.71,2
"ex4087",-0.79,-0.27,1.48,2.48,-1.31,0
"ex4088",-1.70,0.24,1.67,-1.15,-0.67,2
"ex4089",-0.35,0.43,0.85,-0.87,1.30,0
"ex4090",-0.60,-0.84,0.22,0.19,1.03,1
"ex4091",0.61,0.59,0.24,-0.89,-0.44,2
"ex4092",-1.75,-0.04,-2.16,-1.37,0.63,1
"ex4093",-0.63,0.27,0.15,-0.06,-1.02,0
"ex4094",-0.07,0.28,1.47,-1.38,1.01,2
"ex4095",1.10,-0.45,-0.92,1.24,0.12,2
"ex4096",0.89,-0.99,1.59,-0.60,0.51,2
"ex4097",0.60,0.68,0.12,-0.06,-0.08,0
"ex4098",0.91,-3.25,1.93,0.00,0.74,2
"ex4099",0.64,-0.08,0.63,-0.39,-1.89,1
"ex4100",-1.28,-0.99,0.24,0.35,1.31,0
"ex4101",1.03,0.44,-0.93,0.25,1.11,0
"ex4102",0.08,0.54,-0.16,-0.12,0.36,0
"ex4103",-0.16,-2.28,-1.84,-1.07,0.07,0
"ex4104",0.26,0.30,0.11,-0.06,0.29,2
"ex4105",0.52,0.03,0.20,0.27,0.97,2
"ex4106",0.84,0.41,0.69,1.28,1.46,0
"ex4107",-2.30,-0.24,0.16,-0.85,-0.63,2
"ex4108",2.22,-0.65,-1.39,-0.19,0.08,0
"ex4109",-0.48,-1.88,0.25,0.23,-0.45,2
"ex4110",0.75,-0.31,-1.40,-1.01,0.22,2
"ex4111",-0.04,0.52,0.08,0.80,1.47,0
"ex4112",1.26,-0.25,-0.76,-0.08,1.01,0
"ex4113",0.53,0.17,0.87,-3.14,0.73,2
"ex4114",0.21,2.15,-0.57,1.17,-1.92,0
"ex4115",1.02,0.07,1.10,0.07,0.47,0
"ex4116",1.54,1.74,0.53,1.47,-0.84,2
"ex4117",1.00,-1.53,-0.02,0.31,-1.65,0
"ex4118",-0.48,-0.89,1.74,-1.55,-1.08,2
"ex4119",-1.59,-1.11,-0.81,-0.32,-1.04,1
"ex4120",0.50,-0.14,1.78,-0.05,0.58,0
"ex4121",0.44,-1.68,0.39,0.21,0.10,0
"ex4122",-1.82,-0.55,-0.22,-1.69,-0.59,0
"ex4123",-1.69,-0.42,1.47,0.34,-0.18,2
"ex4124",0.51,1.67,-0.93,-1.11,2.45,2
"ex4125",-1.25,0.36,-2.20,-0.36,-1.54,2
"ex4126",0.74,-0.87,0.45,0.05,-0.63,0
"ex4127",0.55,0.17,-1.24,1.61,-1.38,1
"ex4128",-0.07,-0.91,-0.73,-0.69,-1.43,2
"ex4129",-1.93,0.17,-2.07,0.75,1.41,0
"ex4130",0.05,-0.29,-0.04,0.02,-0.29,2
"ex4131",1.36,0.96,0.11,-0.50,-1.03,1
"ex4132",0.00,-0.20,0.62,0.05,-0.01,1
"ex4133",-0.57,-1.09,0.95,2.04,1.19,0
"ex4134",-0.67,1.69,-0.47,-0.28,-0.22,1
"ex4135",-0.01,0.66,0.70,-1.65,-1.12,1
"ex4136",-0.73,0.14,-2.47,2.73,-0.69,2
"ex4137",0.53,-0.65,-0.46,-0.03,-0.89,0
"ex4138",1.30,0.20,-0.37,1.14,0.17,1
"ex4139",-0.66,0.02,2.48,1.03,2.74,1
"ex4140",-1.34,-1.60,-1.31,-1.49,0.81,2
"ex4141",-1.55,-0.19,-1.28,-1.05,0.09,1
"ex4142",-0.31,0.09,-0.00,-1.93,0.12,0
"ex4143",1.80,1.38,-0.83,0.61,-0.89,2
"ex4144",-0.09,2.49,0.71,-0.09,-1.53,1
"ex4145",-1.17,0.63,-0.06,-1.04,-1.24,0
"ex4146",0.12,0.49,-0.33,-0.67,0.06,2
"ex4147",-0.34,-0.35,-1.50,-1.64,0.28,0
"ex4148",0.55,-1.81,-0.03,-0.63,-0.09,1
"ex4149",0.27,1.16,-0.03,-1.85,0.11,2
"ex4150",-0.64,-0.01,-0.49,-0.55,-1.13,2
"ex4151",-0.94,0.96,2.00,0.07,0.38,1
"ex4152",-1.03,-0.16,-0.07,1.20,1.09,2
"ex4153",-0.80,-1.14,1.22,0.46,1.68,0
"ex4154",-0.46,-2.18,-0.30,-0.69,-0.08,0
"ex4155",-1.57,1.26,-1.65,-0.81,-1.07,0
"ex4156",-1.33,-1.66,0.35,-1.34,0.25,2
"ex4157",0.26,-0.35,-1.03,-0.51,1.42,0
"ex4158",0.05,1.25,-0.36,0.10,-1.21,2
"ex4159",0.44,0.63,-1.19,-0.02,-0.23,2
"ex4160",0.81,-0.48,0.29,2.23,-0.06,1
"ex4161",-0.24,-1.59,-0.07,-0.02,-0.01,2
"ex4162",0.24,-0.32,0.65,1.79,-1.24,2
"ex4163",0.33,-1.24,0.62,-1.20,-0.73,2
"ex4164",-0.04,-0.58,0.71,-1.93,0.76,2
"ex4165",-0.76,-0.63,0.71,-1.08,-0.85,2
"ex4166",-0.63,-0.55,0.64,0.34,1.77,2
"ex4167",0.03,-0.32,-0.99,-0.97,1.12,0
"ex4168",-0.33,0.18,-1.01,-2.63,-0.71,1
"ex4169",0.32,0.37,0.37,0.02,-2.40,0
"ex4170",-0.77,-1.43,-0.55,-2.17,0.39,1
"ex4171",1.18,-0.02,-0.26,-1.48,-1.83,2
"ex4172",0.31,-0.21,0.23,-1.58,-1.38,1
"ex4173",-1.03,-0.14,-0.07,-0.84,-0.28,2
"ex4174",-1.19,0.68,-1.63,1.42,0.34,1
"ex4175",-0.67,-2.79,-1.06,0.24,1.41,2
"ex4176",-0.31,0.35,0.20,0.44,2.26,2
"ex4177",-0.51,0.03,-0.50,-1.01,-0.64,0
"ex4178",0.19,1.49,-0.28,0.02,0.89,1
"ex4179",-1.19,-1.66,0.97,1.09,-0.88,0
"ex4180",0.67,0.37,-0.38,0.42,-1.26,0
"ex4181",0.15,-0.57,1.61,0.41,-2.09,1
"ex4182",-0.89,0.95,-0.27,-0.62,0.21,2
"ex4183",1.54,-0.35,0.27,-0.45,1.81,0
"ex4184",0.87,-0.13,1.07,-0.79,-1.61,1
"ex4185",-0.35,0.80,1.20,-0.40,0.06,0
"ex4186",0.04,-0.67,1.17,-1.68,0.82,0
"ex4187",-1.07,-0.60,-0.44,0.81,1.02,0
"ex4188",0.26,0.38,0.72,0.96,1.42,1
"ex4189",-1.13,0.39,-0.39,-0.89,-1.24,2
"ex4190",-1.32,0.23,-0.33,-1.92,0.75,2
"ex4191",-1.14,0.54,0.21,-0.25,1.26,2
"ex4192",-1.05,-0.15,-0.09,-0.33,-0.61,1
"ex4193",-0.71,-1.34,-0.58,0.01,0.18,2
"ex4194",-0.22,1.01,-1.21,0.65,-0.50,2
"ex4195",-0.65,-0.95,0.45,0.38,0.39,1
"ex4196",-0.19,0.28,-1.59,-1.78,-1.17,1
"ex4197",-1.78,1.40,-0.40,1.68,-0.92,2
"ex4198",1.63,0.24,-1.44,-1.57,0.42,1
"ex4199",1.12,0.77,0.29,-0.34,-1.22,2
"ex4200",-0.29,0.12,-0.33,-0.32,1.91,1
"ex4201",1.04,0.11,1.35,0.11,0.45,0
"ex4202",-1.12,-2.04,1.55,-0.85,0.16,0
"ex4203",-0.63,-0.73,-1.05,0.62,0.67,0
"ex4204",1.69,-0.76,1.64,-0.62,0.79,0
"ex4205",1.76,1.80,-1.36,0.33,-0.66,2
"ex4206",-0.33,1.27,-1.22,0.58,-0.81,2
"ex4207",0.58,0.95,0.62,-0.62,0.01,0
"ex4208",-2.12,-0.82,-1.59,1.67,2.51,1
"ex4209",0.33,0.75,0.49,1.25,0.25,2
"ex4210",-1.82,0.24,0.55,0.06,-0.62,0
"ex4211",-0.08,-0.10,0.11,0.98,0.80,0
"ex4212",-0.17,0.43,0.44,-2.63,-0.00,2
"ex4213",-1.42,-1.00,-0.69,-0.31,1.05,0
"ex4214",-0.07,-1.50,0.19,1.10,1.14,2
"ex4215",0.61,0.27,-0.06,0.38,-0.06,1
"ex4216",-1.90,-0.37,-0.02,-0.41,0.44,1
"ex4217",0.01,1.28,-2.07,-0.08,0.32,0
"ex4218",2.26,1.14,-0.61,-0.45,0.33,2
"ex4219",0.45,-0.39,-1.06,-0.66,1.38,0
"ex4220",0.25,0.32,1.57,-0.74,-0.40,1
"ex4221",-1.51,-0.33,2.06,1.18,2.74,0
"ex4222",1.11,-1.00,-1.45,1.05,0.29,2
"ex4223",-0.13,-0.36,1.19,0.13,1.41,2
"ex4224",1.36,-0.19,-1.01,-0.60,0.96,1
"ex4225",1.28,0.11,0.92,0.49,0.05,1
"ex4226",-0.37,0.43,1.99,0.57,-0.35,0
"ex4227",-0.93,1.28,0.65,0.78,0.76,0
"ex4228",0.52,-0.55,2.35,-0.19,1.33,0
"ex4229",-1.27,2.08,1.67,-0.53,-0.81,1
"ex4230",0.45,0.63,0.52,0.10,1.22,0
"ex4231",1.53,0.96,-0.02,0.07,-0.72,0
"ex4232",0.41,-0.38,-2.04,2.03,0.90,1
"ex4233",0.66,0.98,0.01,-0.07,0.13,1
"ex4234",-2.43,-0.56,0.45,-0.54,0.44,2
"ex4235",0.79,0.27,0.31,0.57,0.04,0
"ex4236",-0.09,-0.41,0.10,0.19,-0.61,2
"ex4237",1.11,1.07,-0.45,-0.51,0.02,2
"ex4238",0.02,1.06,-1.62,-0.55,0.40,2
"ex4239",0.65,-0.60,-0.42,0.30,-0.48,1
"ex4240",0.69,0.19,0.15,-0.87,-0.11,1
"ex4241",-0.07,-0.27,2.10,-0.70,0.00,1
"ex4242",-0.51,0.12,0.55,-0.93,-0.63,0
"ex4243",0.84,-0.07,0.17,1.02,0.79,1
"ex4244",-1.09,1.88,0.90,-1.00,-2.04,1
"ex4245",0.08,-0.32,0.71,-1.50,-0.20,1
"ex4246",-0.04,-1.40,-0.72,1.68,-0.31,0
"ex4247",1.38,-0.16,1.72,-0.34,0.14,0
"ex4248",-0.87,-1.89,0.68,-1.06,-1.37,1
"ex4249",-3.22,-0.42,0.43,1.37,0.33,2
"ex4250",-1.21,0.69,1.55,1.78,-0.38,2
"ex4251",-1.99,2.42,1.13,-0.07,0.60,1
"ex4252",-0.09,1.07,0.10,-0.99,-0.71,1
"ex4253",0.78,-0.24,-0.20,-0.65,1.78,1
"ex4254",-0.78,-0.07,1.02,1.23,-2.26,0
"ex4255",-2.15,0.16,-0.28,0.91,1.08,2
"ex4256",-0.09,-1.05,-1.49,0.17,0.09,0
"ex4257",0.72,-0.53,-0.09,1.37,0.57,1
"ex4258",0.83,0.59,0.55,0.72,0.37,1
"ex4259",0.71,-0.97,-0.48,-0.28,2.25,0
"ex4260",0.46,-0.88,1.56,-1.51,0.02,1
"ex4261",0.82,-0.46,1.81,-1.67,0.41,2
"ex4262",0.92,0.23,2.21,1.72,-2.14,2
"ex4263",-1.34,-0.24,-0.95,0.05,0.30,0
"ex4264",0.15,1.11,-0.04,0.51,-1.05,1
"ex4265",0.49,-0.27,0.83,-0.99,-1.92,2
"ex4266",-0.76,0.69,1.11,-0.89,-0.38,2
"ex4267",0.88,-0.03,-0.87,1.23,0.57,2
"ex4268",0.06,0.39,0.64,1.04,1.38,0
"ex4269",-0.70,-3.10,0.15,-1.26,0.07,1
"ex4270",1.35,-0.02,-0.67,0.03,-0.39,1
"ex4271",0.51,-0.81,-0.42,0.05,0.60,1
"ex4272",1.81,0.31,-0.07,-0.64,0.67,0
"ex4273",-0.83,-0.69,0.18,-1.48,-0.42,2
"ex4274",0.70,0.44,0.72,-0.42,-0.92,1
"ex4275",-0.05,1.76,-0.57,0.74,0.14,0
"ex4276",-0.71,-0.17,-0.98,-2.75,-1.69,2
"ex4277",-0.52,0.88,1.10,0.24,-1.31,0
"ex4278",0.27,0.66,0.66,-0.22,-0.07,1
"ex4279",1.18,0.60,-0.18,-0.37,0.21,1
"ex4280",0.45,-0.39,-2.26,-0.01,0.46,2
"ex4281",-0.73,2.06,-0.85,0.16,1.38,0
"ex4282",-0.63,0.75,-0.66,0.94,-0.42,1
"ex4283",0.18,-1.41,1.18,-0.45,0.40,2
"ex4284",0.17,-0.78,1.52,0.01,2.02,2
"ex4285",0.41,0.32,-1.73,-0.85,-0.30,1
"ex4286",0.04,-0.24,-1.50,-2.15,-0.40,1
"ex4287",-0.84,-0.85,-0.06,-1.43,-1.37,1
"ex4288",-0.92,-0.04,0.19,-1.12,0.71,1
"ex4289",-0.81,-0.77,0.23,-1.52,0.09,2
"ex4290",-1.23,1.17,0.47,0.70,0.09,0
"ex4291",-0.30,1.01,0.73,-0.39,0.41,2
"ex4292",0.65,-0.89,-0.58,0.96,-0.52,2
"ex4293",-0.04,0.92,0.69,-1.43,1.31,0
"ex4294",0.71,-1.83,-0.49,-0.92,-0.20,2
"ex4295",0.54,-0.31,-1.96,-0.75,0.33,1
"ex4296",-0.09,1.76,-1.11,-0.25,-0.41,0
"ex4297",-1.59,-1.35,-0.98,-0.03,-0.08,1
"ex4298",-1.01,-0.54,1.26,0.65,2.06,0
"ex4299",0.59,0.68,-0.72,-1.10,0.57,2
"ex4300",0.03,-1.88,1.44,1.95,-1.31,1
"ex4301",-0.10,-0.62,-0.98,1.29,0.49,1
"ex4302",1.66,0.50,-1.37,-0.64,0.42,2
"ex4303",1.68,0.03,-1.24,1.03,-1.22,2
"ex4304",-1.98,-0.78,-0.97,-1.79,-0.68,1
"ex4305",-0.83,-0.82,0.94,-0.65,-0.04,2
"ex4306",0.74,0.97,-0.67,1.20,-0.29,2
"ex4307",1.23,0.84,-1.50,-0.04,-0.07,0
"ex4308",-1.22,1.50,-1.34,-0.22,1.62,2
"ex4309",0.71,-0.41,1.50,1.01,-0.66,0
"ex4310",-0.82,1.53,-0.04,-1.19,0.08,0
"ex4311",2.45,-0.39,-0.64,-0.02,1.45,2
"ex4312",1.03,-0.89,0.38,-0.61,0.90,1
"ex4313",0.20,0.52,2.37,-0.55,1.07,0
"ex4314",0.92,0.86,0.23,0.82,1.69,1
"ex4315",0.49,-0.03,0.13,0.47,-1.46,2
"ex4316",-0.58,0.20,0.01,-1.14,1.56,2
"ex4317",-1.51,1.34,-0.76,0.18,0.32,1
"ex4318",-1.08,0.97,-1.25,-1.25,2.08,1
"ex4319",-0.31,-1.10,0.06,-0.85,1.94,0
"ex4320",-0.19,-0.51,-1.66,0.98,1.17,0
"ex4321",0.27,-0.88,0.18,-2.40,-0.37,1
"ex4322",0.43,-2.10,-0.61,0.19,-0.25,0
"ex4323",-0.20,0.89,-0.06,0.08,-0.97,2
"ex4324",-0.63,-1.01,-0.29,0.26,0.41,0
"ex4325",0.13,-0.38,0.51,-0.65,-0.47,0
"ex4326",1.12,1.57,-1.61,-1.38,-0.06,0
"ex4327",-0.99,0.31,-0.18,0.04,0.38,1
"ex4328",0.67,0.03,-0.40,1.83,0.74,2
"ex4329",-0.77,0.84,2.02,-0.44,-0.66,1
"ex4330",-0.92,0.79,-1.09,1.00,1.49,2
"ex4331",1.24,-0.61,-1.15,-0.46,1.26,0
"ex4332",0.84,-0.39,-0.08,0.91,-0.90,1
"ex4333",1.27,0.09,0.04,0.18,-0.35,2
"ex4334",-2.60,-0.47,1.44,-0.23,1.89,0
"ex4335",1.24,-1.59,-2.04,-0.04,1.02,2
"ex4336",-0.50,-0.72,-2.15,-0.27,-0.45,2
"ex4337",1.01,-1.03,-1.15,0.46,-0.47,0
"ex4338",0.58,1.38,0.10,0.51,-0.65,0
"ex4339",-0.25,1.10,-0.55,1.06,1.35,1
"ex4340",-1.14,-0.41,1.88,-0.64,-1.26,1
"ex4341",-0.58,0.98,-0.41,0.47,-0.61,2
"ex4342",0.43,0.08,0.92,1.55,1.45,2
"ex4343",0.33,-0.90,0.96,0.39,1.82,1
"ex4344",-1.35,-0.21,-1.87,-0.40,1.18,0
"ex4345",-0.24,-0.33,-0.20,1.85,0.95,1
"ex4346",-1.02,0.59,-0.44,0.65,0.21,0
"ex4347",0.69,-1.34,-0.65,-0.20,-0.37,0
"ex4348",2.24,0.92,0.30,1.34,-0.00,1
"ex4349",-0.31,-1.13,-0.42,-0.65,-1.46,0
"ex4350",-0.09,0.34,-0.41,-1.84,-0.52,2
"ex4351",1.42,-0.66,1.28,-1.54,1.29,2
"ex4352",0.22,-0.02,1.11,0.15,-0.63,0
"ex4353",-0.43,-1.41,0.78,0.31,0.13,0
"ex4354",1.03,-2.28,1.05,-1.32,0.31,2
"ex4355",-0.67,1.59,0.88,0.90,1.18,0
"ex4356",0.31,1.91,0.34,-0.68,1.70,0
"ex4357",-0.33,0.79,-0.97,-0.07,-0.57,0
"ex4358",0.05,-0.88,0.21,0.11,0.14,1
"ex4359",0.93,-2.14,0.71,-0.64,-1.65,0
"ex4360",0.80,-0.27,-0.01,-0.62,0.89,1
"ex4361",0.14,-0.25,0.30,0.16,0.69,2
"ex4362",0.43,-1.30,1.80,-0.37,0.21,2
"ex4363",0.51,1.44,-0.71,-0.44,0.33,1
"ex4364",0.73,-0.05,0.66,-0.64,0.14,1
"ex4365",1.49,0.46,2.23,2.39,1.45,0
"ex4366",-0.14,-0.65,-1.04,0.97,0.38,2
"ex4367",1.22,0.57,-0.12,-0.54,-0.50,2
"ex4368",-0.88,0.14,-0.26,-0.83,-0.35,1
"ex4369",0.00,1.71,1.00,-0.82,-0.78,2
"ex4370",1.99,0.81,-2.37,0.35,-0.95,1
"ex4371",-0.28,-1.86,-0.44,0.73,-0.68,1
"ex4372",0.43,0.08,-0.93,-0.19,1.21,0
"ex4373",-0.70,-0.93,-0.09,2.25,0.06,0
"ex4374",-0.37,-0.25,-1.10,0.70,-1.79,2
"ex4375",-0.97,-1.26,0.04,0.54,-1.45,1
"ex4376",0.75,1.40,0.10,0.24,-0.69,0
"ex4377",-1.31,1.13,1.10,-0.07,-0.82,0
"ex4378",0.36,-0.26,0.99,0.11,0.25,2
"ex4379",-1.08,0.71,-0.33,-0.21,1.19,1
"ex4380",-1.58,0.89,0.39,0.60,-1.90,2
"ex4381",1.98,-0.99,0.71,-1.12,-1.31,1
"ex4382",1.10,0.46,-1.06,0.45,0.47,2
"ex4383",-0.80,-0.19,2.11,0.10,-0.70,2
"ex4384",-1.84,1.37,-0.25,-0.92,-0.54,0
"ex4385",0.73,0.73,0.25,0.78,-0.02,1
"ex4386",-1.94,0.63,0.85,-0.91,0.19,1
"ex4387",-0.69,-1.21,-1.04,-1.46,-0.91,1
"ex4388",-0.90,0.03,-0.26,0.38,0.17,1
"ex4389",-0.48,3.32,0.09,0.23,-0.97,1
"ex4390",-1.33,0.39,-0.59,-0.16,-1.76,2
"ex4391",-1.43,-0.17,-0.27,-0.40,-0.81,0
"ex4392",1.75,-0.05,1.73,-0.90,1.01,0
"ex4393",-0.15,0.73,-0.11,-1.58,-0.38,1
"ex4394",2.71,-1.23,0.68,-0.99,-0.51,2
"ex4395",0.02,0.21,1.65,-1.84,-0.55,2
"ex4396",0.78,-0.51,-1.11,-0.95,0.22,2
"ex4397",1.51,0.17,1.69,-1.82,0.69,2
"ex4398",0.38,-0.31,-1.13,-0.23,-1.47,1
"ex4399",-0.49,-0.34,0.78,-0.99,1.13,1
"ex4400",-1.72,-1.62,0.47,-0.40,0.61,0
"ex4401",0.13,-0.01,-0.38,0.57,0.13,1
"ex4402",1.39,-0.44,-1.84,0.22,0.01,0
"ex4403",-0.73,-0.94,0.16,-1.34,1.06,0
"ex4404",-1.30,-0.29,-1.35,0.77,0.45,1
"ex4405",-2.21,-0.72,0.46,0.35,-0.30,1
"ex4406",0.39,-0.19,0.85,-0.14,-0.72,0
"ex4407",1.99,2.15,0.49,0.08,0.32,1
"ex4408",-0.60,0.16,0.12,1.24,-0.57,2
"ex4409",-2.07,-1.46,0.50,0.46,-0.35,2
"ex4410",0.40,0.56,-0.01,-1.46,-0.32,0
"ex4411",-0.76,-0.31,-0.61,0.10,-1.97,0
"ex4412",1.11,-0.16,2.17,-0.12,1.31,0
"ex4413",-0.74,1.17,1.11,-1.53,-1.46,0
"ex4414",0.57,1.01,1.26,1.30,-0.02,0
"ex4415",0.30,0.07,-1.04,0.03,-0.33,1
"ex4416",-1.08,-0.12,-1.84,0.16,-0.41,2
"ex4417",-0.59,-1.15,-0.27,-0.35,0.15,2
"ex4418",0.19,-1.53,-0.01,0.57,0.33,1
"ex4419",0.77,-0.85,1.11,-0.91,-0.15,0
"ex4420",-0.44,0.37,-1.66,0.45,1.13,2
"ex4421",0.71,1.13,-0.90,-0.03,-0.40,0
"ex4422",1.70,-0.83,0.02,0.35,-0.53,1
"ex4423",-0.55,0.66,0.52,0.35,-0.01,0
"ex4424",0.34,0.39,-1.24,0.21,-0.72,0
"ex4425",-0.68,0.75,1.12,0.50,-0.22,0
"ex4426",0.10,0.51,1.15,-1.11,-0.06,1
"ex4427",0.54,-1.14,0.34,-0.52,-0.66,2
"ex4428",-0.75,0.51,-2.61,-0.18,0.39,0
"ex4429",-0.58,-1.39,0.82,0.19,-0.77,0
"ex4430",2.26,0.15,-0.70,-2.29,0.29,2
"ex4431",0.11,1.21,-0.31,1.67,1.33,0
"ex4432",-0.69,0.25,-0.67,0.50,0.85,1
"ex4433",-0.34,0.36,-1.92,-1.38,0.51,0
"ex4434",1.40,-0.22,2.19,-0.18,0.32,1
"ex4435",-0.52,-0.97,-0.36,0.53,-1.21,2
"ex4436",0.84,0.75,-1.43,-0.85,0.98,2
"ex4437",1.95,1.21,-0.37,0.00,-0.76,2
"ex4438",1.46,-0.07,-0.86,1.16,1.27,1
"ex4439",-0.16,0.52,0.59,-2.41,2.70,1
"ex4440",1.82,-0.75,-0.17,-1.20,-0.32,2
"ex4441",0.13,1.04,-0.58,-0.10,0.45,1
"ex4442",0.19,0.09,0.46,-0.82,-0.57,2
"ex4443",-0.32,0.89,-0.43,0.45,-1.01,0
"ex4444",0.80,0.16,2.29,1.76,0.01,1
"ex4445",0.04,-1.00,-1.85,1.49,-0.32,2
"ex4446",-0.28,-2.54,1.82,0.24,-1.23,2
"ex4447",0.04,-0.17,0.74,1.02,0.41,1
"ex4448",-0.57,1.96,-1.12,0.23,0.78,1
"ex4449",-0.71,-1.90,0.12,-0.71,-1.15,0
"ex4450",1.14,1.13,-0.52,0.19,-0.98,1
"ex4451",-0.75,-1.49,-0.42,-2.21,-1.78,2
"ex4452",-0.17,-0.67,1.84,-0.83,-0.71,2
"ex4453",-1.40,-0.61,-0.04,-1.77,-0.86,1
"ex4454",-0.03,0.58,0.40,-2.03,0.55,0
"ex4455",0.99,0.96,-1.58,-2.28,-0.54,0
"ex4456",-0.88,0.76,-0.47,-0.39,-0.34,2
"ex4457",-0.37,-0.54,-0.74,-0.41,-0.47,2
"ex4458",0.46,0.60,0.55,-1.05,-0.07,0
"ex4459",0.41,-0.19,0.43,-2.15,1.28,0
"ex4460",-0.07,0.06,0.63,1.33,-1.14,1
"ex4461",-0.39,-1.30,1.17,-0.02,0.53,1
"ex4462",1.00,0.44,1.10,0.03,0.39,1
"ex4463",1.71,-1.05,0.31,0.12,0.83,0
"ex4464",-0.94,-1.49,-0.07,-1.18,1.70,0
"ex4465",-0.46,-0.61,-0.68,-0.90,-1.97,0
"ex4466",-0.37,1.38,-0.70,-1.97,1.38,2
"ex4467",1.94,1.20,-1.29,-0.06,-0.28,0
"ex4468",-1.04,0.17,0.04,0.14,0.68,0
"ex4469",-0.00,-2.47,1.14,-0.10,-0.19,0
"ex4470",0.15,-0.19,0.49,1.47,-0.25,2
"ex4471",1.41,-1.15,2.77,-2.64,0.16,1
"ex4472",-0.75,0.79,0.17,-1.09,1.21,0
"ex4473",-1.45,-1.38,-2.35,0.50,0.04,1
"ex4474",0.74,0.67,0.70,0.91,0.55,1
"ex4475",1.97,1.60,1.46,0.49,0.40,1
"ex4476",-0.84,-1.50,-1.75,-1.13,-0.85,0
"ex4477",-0.82,1.16,0.33,0.28,-0.31,1
"ex4478",-0.63,-1.79,0.62,0.32,1.35,1
"ex4479",-0.57,-2.14,-0.76,-0.20,-0.03,2
"ex4480",0.98,-0.35,-1.45,-1.10,2.44,1
"ex4481",-1.83,-0.37,-0.18,-0.57,0.16,2
"ex4482",-0.55,-1.83,0.26,0.34,0.13,2
"ex4483",1.82,0.26,1.55,-0.13,-0.40,0
"ex4484",1.12,-0.82,0.06,-1.23,-1.67,2
"ex4485",0.39,-1.42,0.89,-1.17,-1.35,1
"ex4486",-1.50,-1.46,-1.34,-0.10,0.37,1
"ex4487",-1.27,0.17,1.00,-0.40,1.91,2
"ex4488",2.88,0.63,1.88,-0.40,0.27,1
"ex4489",-1.12,-0.82,1.38,1.16,-0.15,1
"ex4490",0.77,-1.38,0.33,-1.43,0.42,1
"ex4491",0.67,-0.37,-0.21,-1.66,0.25,0
"ex4492",1.25,0.45,0.52,-0.04,-0.29,1
"ex4493",0.03,-0.04,0.21,0.40,0.19,0
"ex4494",0.21,0.23,-0.34,0.81,0.15,2
"ex4495",1.43,-1.98,1.18,0.93,1.34,2
"ex4496",-0.85,-0.41,0.61,0.00,0.16,0
"ex4497",0.83,-0.64,-0.29,1.25,1.38,2
"ex4498",0.25,0.55,-0.91,-0.65,0.67,2
"ex4499",0.31,-0.82,-1.02,-0.56,-1.50,1
"ex4500",0.04,0.38,0.80,0.61,0.83,0
"ex4501",1.77,-0.08,0.27,-0.30,-0.36,1
"ex4502",1.45,-1.03,0.41,-0.06,-1.20,2
"ex4503",0.86,-1.09,1.20,-0.26,0.51,1
"ex4504",-0.18,-1.22,-0.45,0.97,-0.84,1
"ex4505",1.67,0.37,-0.68,-0.67,-0.63,0
"ex4506",0.31,-0.77,-1.22,0.78,-2.18,1
"ex4507",-0.26,0.38,-0.17,-0.11,1.26,1
"ex4508",-0.06,0.93,0.03,0.95,-0.35,1
"ex4509",0.47,1.31,-1.78,2.00,-0.10,2
"ex4510",0.57,0.89,0.17,1.12,-0.61,2
"ex4511",-0.54,-1.02,1.21,-1.21,-0.74,2
"ex4512",-0.93,-0.04,-0.72,-1.45,-0.40,1
"ex4513",-1.87,1.97,-0.21,-0.32,-0.67,2
"ex4514",-0.82,-0.19,0.74,0.71,-0.95,2
"ex4515",-0.34,0.46,-1.72,-0.37,0.62,0
"ex4516",-2.21,-0.30,-1.28,-0.62,0.44,0
"ex4517",1.04,-0.97,0.11,0.27,-0.24,1
"ex4518",-1.53,-1.07,-0.88,0.96,-0.04,2
"ex4519",-0.12,0.93,-0.19,0.04,1.32,2
"ex4520",-0.16,-0.26,-0.17,-0.11,-0.42,2
"ex4521",1.72,-0.30,-0.52,-0.92,-1.01,0
"ex4522",-0.77,0.36,-2.40,0.83,-0.18,2
"ex4523",-0.40,0.83,-0.61,-0.60,0.59,0
"ex4524",1.12,-2.34,-0.60,-1.91,0.85,0
"ex4525",-1.07,-1.16,-0.57,1.56,-0.80,1
"ex4526",0.21,-0.87,-1.13,0.58,0.56,1
"ex4527",0.92,-0.27,0.09,0.39,0.31,0
"ex4528",0.52,-0.57,-0.28,0.57,-2.54,2
"ex4529",-0.99,-0.04,0.90,-1.37,0.66,2
"ex4530",-1.89,0.44,-0.94,-3.03,-0.01,1
"ex4531",0.32,-2.93,1.29,-2.32,0.04,1
"ex4532",-0.58,1.23,-0.64,0.23,-0.40,0
"ex4533",0.64,-1.03,1.45,-1.04,-0.25,0
"ex4534",-0.26,0.07,-0.05,-0.28,-0.20,0
"ex4535",-0.10,0.28,0.70,-1.54,0.76,2
"ex4536",1.62,-1.39,-1.38,-1.42,0.49,2
"ex4537",0.17,-0.24,-0.32,-2.19,-0.55,1
"ex4538",-0.00,0.94,-1.21,2.03,0.21,1
"ex4539",-2.23,0.81,-0.76,1.07,-0.67,2
"ex4540",2.40,0.56,0.78,1.55,-0.31,0
"ex4541",-0.48,-1.17,0.33,1.30,2.61,0
"ex4542",-1.20,-0.80,1.03,-0.84,0.15,2
"ex4543",1.43,0.59,-1.13,0.82,-0.64,0
"ex4544",0.46,-0.76,2.32,-0.58,-0.78,0
"ex4545",0.27,0.73,1.19,-0.29,0.16,2
"ex4546",2.47,1.43,-0.91,0.98,-0.27,0
"ex4547",0.88,-0.98,-1.94,0.29,0.21,1
"ex4548",-0.70,0.40,-1.52,0.14,-0.04,2
"ex4549",-1.66,-0.23,-1.64,-0.33,0.04,1
"ex4550",1.05,0.84,-0.44,-2.32,0.24,1
"ex4551",-0.64,-0.05,-0.90,-0.27,-0.07,2
"ex4552",1.18,0.37,-1.40,0.14,1.45,1
"ex4553",-0.82,0.52,0.71,-1.18,0.99,1
"ex4554",-0.31,-0.62,-0.76,-0.89,-1.06,1
"ex4555",0.93,0.30,0.24,0.17,0.39,0
"ex4556",0.73,-0.22,0.96,-0.20,0.69,1
"ex4557",0.30,1.20,-0.36,-0.75,2.22,2
"ex4558",-0.75,-0.37,0.06,-0.94,-0.04,1
"ex4559",-1.96,-1.14,1.77,1.32,-0.49,1
"ex4560",-1.70,0.78,0.96,0.34,0.39,0
"ex4561",0.81,0.90,1.37,0.34,1.20,0
"ex4562",-2.08,0.45,0.24,-1.13,0.10,2
"ex4563",-0.38,-1.04,0.57,0.05,-1.23,2
"ex4564",0.90,-0.97,-0.49,-2.08,0.73,1
"ex4565",-0.83,1.44,-0.80,0.34,1.45,0
"ex4566",-0.39,-0.16,0.07,0.13,0.49,0
"ex4567",-0.62,-0.21,2.78,1.14,-0.94,2
"ex4568",-1.00,0.18,-0.78,0.67,0.60,2
"ex4569",-0.54,-0.69,0.70,1.05,1.93,2
"ex4570",0.77,-0.13,-1.09,-0.59,0.79,0
"ex4571",-0.84,-0.65,0.45,0.72,-1.29,2
"ex4572",-1.17,0.25,-0.76,-0.43,0.28,0
"ex4573",-0.06,-0.26,0.76,-0.63,-0.37,0
"ex4574",0.99,-1.26,1.63,-0.01,-1.00,2
"ex4575",0.12,0.23,-0.44,-0.41,1.67,0
"ex4576",0.57,-0.13,0.56,0.33,2.10,2
"ex4577",-1.09,0.27,-0.82,-0.87,1.15,1
"ex4578",-1.92,-0.25,-0.81,0.63,0.25,2
"ex4579",0.44,1.55,-0.64,-1.31,-0.62,2
"ex4580",1.45,1.29,0.82,1.01,1.10,2
"ex4581",0.31,0.47,0.55,-0.55,0.84,2
"ex4582",0.88,1.42,1.18,1.13,-0.35,0
"ex4583",1.33,-0.24,-0.01,1.07,-1.68,2
"ex4584",0.54,-0.40,-0.55,0.04,0.69,1
"ex4585",-0.67,-1.89,0.43,0.19,1.10,0
"ex4586",0.32,1.02,0.39,-1.20,-0.91,0
"ex4587",0.16,0.51,0.72,0.87,0.71,0
"ex4588",1.89,0.70,0.67,0.08,0.29,0
"ex4589",-0.48,0.38,-0.93,-0.30,-0.59,2
"ex4590",1.17,1.62,1.43,-1.89,-0.66,0
"ex4591",1.33,-1.26,0.08,-0.09,-0.38,0
"ex4592",0.29,0.53,-0.18,-1.12,1.17,0
"ex4593",-1.52,-1.12,-1.59,-0.21,0.56,1
"ex4594",1.57,0.24,0.91,0.05,-0.69,0
"ex4595",-0.90,0.05,1.86,0.51,-0.75,0
"ex4596",-0.01,-0.39,-0.48,1.21,-0.13,1
"ex4597",0.61,0.43,0.99,0.55,-0.50,1
"ex4598",-1.00,0.65,-0.92,0.95,-0.54,0
"ex4599",0.25,-0.17,1.94,0.54,-0.63,1
"ex4600",-0.16,-0.12,-1.27,0.57,0.49,1
"ex4601",0.01,-1.80,0.78,0.36,0.48,0
"ex4602",0.99,1.66,0.15,0.14,-3.47,1
"ex4603",-0.43,1.38,-0.99,-1.61,0.89,1
"ex4604",-0.71,-0.34,-0.80,1.19,-0.15,0
"ex4605",0.12,0.29,1.07,1.55,1.40,2
"ex4606",-0.63,-0.34,-0.69,0.33,-0.15,0
"ex4607",0.09,0.37,1.09,0.33,0.48,2
"ex4608",0.42,-1.82,0.77,2.81,-2.16,1
"ex4609",2.69,-0.34,0.71,0.44,0.15,1
"ex4610",0.48,0.62,-0.75,-0.43,-1.02,1
"ex4611",-0.47,1.17,-1.14,0.46,-0.98,2
"ex4612",-0.14,2.52,0.43,-2.40,-0.90,1
"ex4613",1.62,1.09,1.27,-0.70,0.33,2
"ex4614",-0.49,-0.30,-0.77,-0.56,-1.02,0
"ex4615",0.73,-0.05,0.62,0.77,-2.89,1
"ex4616",-0.58,-0.31,-0.15,-0.81,-0.86,1
"ex4617",-0.07,-0.67,-0.25,-0.21,0.27,1
"ex4618",-0.41,-0.68,0.43,-0.10,1.38,1
"ex4619",1.53,1.31,-1.00,1.10,-0.19,2
"ex4620",1.03,1.38,-0.25,-0.70,0.71,0
"ex4621",0.26,-0.57,-1.19,-0.55,-0.11,0
"ex4622",1.40,1.03,0.55,-0.99,-0.28,1
"ex4623",1.03,-0.85,0.30,-0.84,-1.19,2
"ex4624",0.79,1.44,0.15,-1.36,-1.54,0
"ex4625",-0.37,-0.51,0.29,-0.50,0.25,2
"ex4626",-0.94,-0.51,-0.75,-1.73,2.58,0
"ex4627",-0.02,2.59,-1.77,-0.24,-0.70,0
"ex4628",0.51,-0.47,0.37,-1.49,0.68,0
"ex4629",0.51,-0.67,-0.91,-0.67,1.45,0
"ex4630",-0.85,-0.45,0.86,-1.26,0.29,1
"ex4631",0.96,0.09,-1.53,-0.16,-0.18,2
"ex4632",-1.00,0.27,-1.23,1.07,1.64,0
"ex4633",0.19,0.40,0.91,-0.65,0.85,1
"ex4634",-1.63,-0.78,0.70,0.49,0.25,1
"ex4635",0.81,0.37,-1.59,0.25,0.73,1
"ex4636",0.59,1.22,-1.17,-0.08,-0.69,0
"ex4637",1.29,0.36,-0.68,0.84,-1.56,1
"ex4638",0.72,1.16,-1.22,-0.06,0.77,2
"ex4639",-0.62,0.67,-1.28,0.09,0.94,0
"ex4640",1.27,1.08,0.17,-0.65,0.50,0
"ex4641",0.15,1.44,1.40,0.50,2.55,0
"ex4642",-0.42,0.83,0.29,0.01,-0.15,1
"ex4643",-1.12,1.06,2.78,-0.72,0.36,1
"ex4644",-0.95,0.87,-1.63,1.45,0.92,0
"ex4645",-0.26,0.92,2.20,-1.29,-0.31,0
"ex4646",0.63,-1.56,0.60,-1.09,-0.40,2
"ex4647",-0.80,0.20,-0.62,-1.78,0.56,2
"ex4648",2.35,0.30,1.30,0.05,0.31,0
"ex4649",-0.72,-0.72,-0.44,0.06,-0.14,0
"ex4650",1.26,-0.39,0.35,-1.30,0.60,0
"ex4651",-0.47,-1.16,-1.04,0.29,-2.19,2
"ex4652",0.77,0.73,-0.98,-0.20,0.16,0
"ex4653",1.10,0.44,0.13,0.92,1.29,0
"ex4654",0.59,1.51,-0.67,-0.15,-0.60,2
"ex4655",-0.78,-0.58,0.26,2.35,2.13,0
"ex4656",1.46,-0.46,0.24,-0.33,0.19,2
"ex4657",-1.81,-0.80,1.84,-0.92,1.42,1
"ex4658",-1.33,0.48,-0.90,0.19,-0.99,0
"ex4659",0.40,-0.14,-0.52,0.07,0.08,2
"ex4660",0.81,1.62,0.47,-0.15,-1.55,1
"ex4661",-0.06,0.14,0.28,-1.09,-1.03,0
"ex4662",1.01,-1.53,0.78,-0.68,-2.01,2
"ex4663",-0.42,0.25,0.36,1.55,-1.84,2
"ex4664",0.52,1.29,0.30,-1.65,1.21,1
"ex4665",1.18,2.01,-0.71,0.19,0.53,0
"ex4666",0.82,-1.17,-1.27,0.12,1.76,1
"ex4667",1.57,-0.47,0.63,-0.60,-0.42,0
"ex4668",1.59,-1.79,-0.45,1.78,-0.27,0
"ex4669",1.35,-0.37,-0.46,0.58,-1.03,1
"ex4670",0.57,0.02,1.43,1.36,0.12,0
"ex4671",-1.18,0.78,-0.20,1.47,0.70,0
"ex4672",0.82,0.83,-0.14,-0.56,-0.29,1
"ex4673",-0.84,-1.02,-1.57,-1.11,0.13,2
"ex4674",-0.35,-0.09,0.64,-1.17,0.96,2
"ex4675",-0.04,0.66,-0.69,0.37,-1.40,0
"ex4676",-0.05,-0.77,-0.45,-0.07,-1.06,2
"ex4677",-0.38,-0.16,-0.38,0.62,-0.20,0
"ex4678",-0.13,0.93,0.74,-0.54,-0.48,2
"ex4679",0.31,0.19,-0.05,0.01,0.14,2
"ex4680",-0.83,1.56,-1.63,-0.49,-0.22,0
"ex4681",1.45,1.09,0.98,0.74,0.67,0
"ex4682",0.43,-2.03,1.63,1.28,2.07,0
"ex4683",-1.38,-0.76,-1.21,1.51,1.33,1
"ex4684",-1.09,-0.90,-0.23,1.63,-0.25,1
"ex4685",-0.08,0.47,1.08,1.04,2.15,2
"ex4686",0.42,-1.42,1.44,0.67,-0.59,0
"ex4687",-0.27,-0.73,1.06,0.55,-0.45,0
"ex4688",-0.21,0.73,1.35,1.09,0.83,2
"ex4689",-0.04,0.61,-0.03,1.34,-1.58,0
"ex4690",-1.48,0.28,-1.44,2.56,-1.18,0
"ex4691",-1.72,0.66,-1.13,1.56,-0.09,0
"ex4692",-1.01,-1.22,0.82,1.16,0.66,0
"ex4693",-0.14,-0.12,0.02,-0.70,-0.36,2
"ex4694",-0.07,0.94,-0.03,-1.10,1.25,2
"ex4695",-0.03,-0.01,-1.39,-1.35,-0.11,2
"ex4696",-0.18,-0.78,-3.23,-0.97,1.14,0
"ex4697",0.83,1.16,-0.20,-0.07,0.69,1
"ex4698",-0.16,0.09,1.89,-2.25,-0.11,0
"ex4699",-0.98,0.89,0.20,1.71,1.27,2
"ex4700",-0.58,0.49,-0.82,-0.71,-0.63,1
"ex4701",1.69,0.33,-0.11,0.19,0.18,2
"ex4702",-0.02,-1.12,-1.60,0.88,-1.14,0
"ex4703",-0.09,0.30,-0.85,0.49,1.05,2
"ex4704",0.60,0.59,0.82,1.72,-0.06,1
"ex4705",-0.53,1.46,0.13,1.13,0.28,0
"ex4706",-1.11,0.28,2.18,-1.56,0.53,0
"ex4707",0.68,-0.19,-0.68,0.76,1.06,1
"ex4708",0.66,-1.26,1.13,0.05,0.09,0
"ex4709",-0.92,0.21,-0.33,-2.02,-1.09,1
"ex4710",0.97,0.13,0.61,0.34,-0.16,0
"ex4711",-0.34,-0.40,0.65,-1.61,1.32,0
"ex4712",-0.54,-0.78,-0.64,-0.08,1.55,0
"ex4713",1.36,-2.62,-0.55,-1.85,1.25,2
"ex4714",-1.93,-1.06,1.86,0.66,-1.55,0
"ex4715",0.27,-1.41,-0.19,0.52,-0.05,0
"ex4716",-0.54,-1.75,0.03,0.51,0.38,1
"ex4717",0.81,-0.88,-0.22,-0.67,-1.39,0
"ex4718",-1.19,-1.02,-1.24,1.72,0.75,2
"ex4719",0.67,1.44,0.68,-0.74,0.04,2
"ex4720",0.34,-1.08,1.20,-0.17,-1.30,2
"ex4721",-1.47,0.61,0.13,-0.32,-0.31,0
"ex4722",-0.05,1.63,-0.62,-0.94,-0.69,1
"ex4723",-1.83,0.75,1.27,0.03,-0.20,2
"ex4724",-0.96,0.48,-0.36,-0.66,-0.89,0
"ex4725",1.96,0.90,-0.70,-0.16,1.45,2
"ex4726",-0.11,-0.02,-0.55,0.37,0.27,0
"ex4727",0.44,-1.25,0.71,0.70,-1.43,0
"ex4728",0.60,-0.19,0.34,-1.40,-0.57,1
"ex4729",0.52,-0.74,0.65,0.90,-0.42,2
"ex4730",-0.36,-0.43,0.64,1.70,-0.09,2
"ex4731",0.97,-2.76,1.68,0.05,0.94,0
"ex4732",-1.25,0.58,-1.13,-0.93,-0.74,0
"ex4733",-0.24,-0.41,-2.01,-0.70,0.50,0
"ex4734",-0.08,0.32,1.18,-1.67,1.22,0
"ex4735",0.45,-1.10,0.87,0.49,-0.04,1
"ex4736",-1.50,0.02,2.15,-1.05,-0.43,0
"ex4737",-0.76,-1.16,0.76,0.77,0.10,1
"ex4738",-1.91,-1.22,0.59,-0.85,-0.19,1
"ex4739",-0.50,0.74,-0.31,0.02,-0.41,2
"ex4740",-0.40,-0.43,-1.62,1.59,-0.34,2
"ex4741",-0.65,-1.10,-0.21,1.00,1.28,0
"ex4742",-0.64,-1.17,1.97,-1.92,-1.40,0
"ex4743",0.92,0.71,-0.17,0.16,-1.08,2
"ex4744",0.37,-0.45,1.35,1.09,0.20,1
"ex4745",0.18,0.09,-1.48,-0.91,-0.65,0
"ex4746",-0.37,0.23,-1.44,0.01,-0.42,2
"ex4747",-0.63,0.17,-0.10,0.77,-1.24,0
"ex4748",0.33,-0.80,1.04,0.10,0.47,1
"ex4749",-0.80,-1.46,0.22,1.29,0.18,0
"ex4750",-0.10,-1.79,-0.94,1.56,-1.07,1
"ex4751",0.42,-0.72,0.43,-0.18,1.50,2
"ex4752",1.61,-0.49,1.22,1.74,1.05,1
"ex4753",-0.93,-1.34,0.08,-0.14,-0.64,1
"ex4754",0.53,0.20,-1.07,2.26,1.35,0
"ex4755",-2.93,-0.25,2.13,-1.15,0.76,1
"ex4756",-0.84,0.10,0.68,-0.14,0.68,1
"ex4757",-0.14,0.06,-0.87,0.25,-0.75,2
"ex4758",-0.95,1.49,0.19,0.37,0.08,1
"ex4759",-0.69,-0.53,-1.62,0.94,-0.63,0
"ex4760",1.84,-0.24,1.23,0.44,-0.01,1
"ex4761",1.75,1.33,0.18,-0.03,0.94,1
"ex4762",1.51,-0.27,0.76,-0.67,-0.37,1
"ex4763",-0.46,0.71,-0.71,0.99,-0.01,1
"ex4764",0.82,-2.68,-0.06,0.37,0.44,0
"ex4765",0.35,-0.34,-0.26,0.24,1.23,0
"ex4766",-2.12,1.11,0.77,-0.01,-0.82,1
"ex4767",-1.13,-0.82,0.32,0.86,-1.86,1
"ex4768",-0.86,-1.81,-0.27,0.61,-0.43,0
"ex4769",-0.38,0.29,-1.24,0.62,0.58,2
"ex4770",-0.20,1.00,-0.45,-0.24,-0.31,2
"ex4771",0.08,0.39,-2.25,0.57,1.33,1
"ex4772",0.39,0.80,-0.67,0.31,-2.21,0
"ex4773",1.76,1.86,1.10,-1.52,-1.40,0
"ex4774",-1.23,-0.24,1.21,-0.37,0.33,2
"ex4775",-0.35,0.53,1.41,1.33,0.33,2
"ex4776",0.31,-1.07,-0.33,-0.34,0.54,1
"ex4777",-0.58,-0.43,0.12,-1.31,-0.79,2
"ex4778",-2.02,-0.73,0.36,-1.57,-0.88,0
"ex4779",-0.17,0.16,0.23,-1.59,-0.99,1
"ex4780",0.04,0.19,0.84,-0.38,1.13,2
"ex4781",-1.29,-0.82,0.69,0.46,0.93,0
"ex4782",-1.53,0.26,-0.01,0.19,0.69,0
"ex4783",0.01,-1.81,2.01,-0.91,1.66,0
"ex4784",0.62,-0.99,-0.53,-0.48,-0.15,0
"ex4785",-0.94,0.48,0.86,3.10,-1.39,0
"ex4786",-1.25,-0.31,-1.47,-0.49,-0.01,0
"ex4787",-0.46,0.01,0.71,0.38,1.30,2
"ex4788",0.32,0.14,-0.39,-0.45,0.92,2
"ex4789",-0.75,-0.12,0.62,0.26,0.35,1
"ex4790",2.50,-1.96,0.55,-2.13,-1.69,2
"ex4791",0.25,1.68,-0.43,-0.97,-0.26,0
"ex4792",0.06,-1.95,-1.04,0.87,1.17,0
"ex4793",1.71,0.81,-0.55,-0.35,0.24,2
"ex4794",0.09,0.23,-0.09,0.77,0.02,2
"ex4795",-2.35,1.80,0.88,0.80,-0.58,1
"ex4796",0.59,-0.21,0.30,0.06,1.69,0
"ex4797",-1.98,0.19,1.70,0.02,0.10,1
"ex4798",0.04,0.61,-1.17,-1.81,-0.11,1
"ex4799",-0.83,0.54,-1.99,1.35,1.10,1
"ex4800",-0.04,-0.94,-0.26,0.20,1.05,2
"ex4801",-1.55,-0.59,1.39,0.27,0.06,1
"ex4802",0.47,0.46,-0.94,0.16,1.52,2
"ex4803",0.82,1.60,0.06,-0.60,1.53,0
"ex4804",-1.71,-0.42,0.99,-0.19,1.04,2
"ex4805",0.43,1.71,-1.35,0.17,-1.56,0
"ex4806",0.67,-0.59,0.98,-0.03,-0.12,0
"ex4807",-0.33,-1.75,0.22,1.77,0.67,1
"ex4808",0.26,0.10,-2.06,1.07,0.50,1
"ex4809",-0.23,-0.62,-1.29,0.38,-1.09,1
"ex4810",-0.24,1.66,-1.70,-0.59,2.23,0
"ex4811",-0.05,1.58,-0.86,-0.25,-2.04,2
"ex4812",-0.44,-2.51,0.62,-2.19,0.24,2
"ex4813",0.96,-0.09,-0.54,-0.13,-0.79,0
"ex4814",-0.51,0.61,-0.12,0.63,2.25,2
"ex4815",0.39,-0.83,-1.57,-0.36,1.59,0
"ex4816",-0.33,0.15,-0.03,-0.31,-0.72,2
"ex4817",-0.16,-0.29,0.66,1.35,-0.80,1
"ex4818",-1.47,-0.77,-0.18,-2.01,-0.33,0
"ex4819",-0.33,1.73,0.26,1.73,-0.92,2
"ex4820",0.93,0.28,0.06,0.75,0.74,0
"ex4821",0.52,-0.07,-0.72,-0.46,0.07,2
"ex4822",-0.53,0.37,-1.49,0.34,0.06,1
"ex4823",-1.28,1.59,1.99,0.39,1.04,2
"ex4824",0.75,-0.97,0.78,-0.33,0.90,0
"ex4825",-1.52,0.68,-0.61,-0.49,-2.10,2
"ex4826",0.11,0.84,-0.93,-0.23,-0.53,1
"ex4827",-0.62,-0.03,-1.74,-0.69,0.14,2
"ex4828",-0.63,0.96,1.51,0.48,-0.10,2
"ex4829",1.59,1.04,-1.46,1.07,-2.11,2
"ex4830",-0.40,-1.37,-0.57,0.09,-2.13,0
"ex4831",-0.62,0.02,-0.31,1.20,-0.36,2
"ex4832",-0.50,0.84,-0.33,0.18,-0.63,1
"ex4833",0.59,2.24,0.21,-0.60,-0.45,2
"ex4834",-0.87,-0.01,0.35,0.11,-0.07,2
"ex4835",-0.07,0.07,-0.55,-1.57,0.84,1
"ex4836",1.24,1.07,-0.86,-0.73,-0.67,2
"ex4837",0.67,1.97,-0.08,-0.76,-0.81,2
"ex4838",0.15,0.29,-0.84,-0.51,1.46,0
"ex4839",-0.80,0.39,0.85,0.25,1.15,1
"ex4840",1.80,-0.27,-0.74,-0.80,1.39,0
"ex4841",-0.42,-0.77,-1.28,0.57,-0.24,1
"ex4842",1.17,0.30,0.41,-1.79,-1.23,0
"ex4843",0.80,0.20,0.37,0.49,-1.58,0
"ex4844",-0.14,-0.32,-1.98,-0.26,-0.75,1
"ex4845",0.79,0.58,0.21,-1.31,-1.17,0
"ex4846",0.15,-0.57,-0.22,-0.53,-0.79,2
"ex4847",-0.05,0.28,-0.58,1.01,-0.56,2
"ex4848",-0.75,-0.30,0.98,-2.05,0.28,1
"ex4849",-0.41,-1.47,0.61,-1.59,-1.88,2
"ex4850",1.87,2.08,0.23,2.40,1.36,2
"ex4851",0.05,0.35,1.22,1.49,1.95,1
"ex4852",-0.96,0.18,0.39,0.41,1.88,2
"ex4853",-0.73,-0.11,-1.41,0.35,-0.59,0
"ex4854",-0.11,0.43,-1.90,-0.34,-0.41,2
"ex4855",-1.15,-1.06,-0.36,-0.99,2.63,1
"ex4856",-1.33,0.53,-0.98,-0.73,0.45,1
"ex4857",0.40,0.42,1.20,-0.79,-0.07,0
"ex4858",-0.44,1.25,-0.56,-2.10,-1.30,2
"ex4859",-0.07,-0.83,-0.51,-1.38,0.52,0
"ex4860",0.83,-1.15,0.83,-2.54,0.16,1
"ex4861",0.75,-1.56,-1.17,0.05,0.51,1
"ex4862",1.12,0.89,0.36,1.16,-0.65,1
"ex4863",0.53,-0.02,-1.51,0.25,1.26,2
"ex4864",-1.69,0.80,0.49,0.21,1.60,0
"ex4865",0.56,0.30,-0.05,0.29,0.00,0
"ex4866",-0.46,-0.97,-1.33,-0.76,-0.35,1
"ex4867",1.55,-0.60,0.49,1.56,1.14,1
"ex4868",0.18,-0.75,0.49,1.38,0.24,0
"ex4869",0.20,1.28,-0.33,1.36,1.30,2
"ex4870",1.35,-0.56,-0.38,0.47,-0.18,0
"ex4871",-0.63,-0.23,1.58,0.52,-0.30,2
"ex4872",-1.40,0.19,-0.31,-0.52,0.69,2
"ex4873",-0.15,-1.54,1.44,-0.95,-0.28,2
"ex4874",0.91,-1.23,1.07,-0.80,1.47,0
"ex4875",0.62,-0.39,-0.47,0.82,0.38,0
"ex4876",-0.71,0.16,-1.65,-0.32,-1.06,1
"ex4877",-0.44,1.04,2.29,-0.03,1.38,1
"ex4878",-0.84,-1.03,0.71,-1.11,0.89,2
"ex4879",-0.35,-1.09,-1.94,0.01,-0.37,2
"ex4880",0.48,0.01,0.57,-1.18,1.56,1
"ex4881",-0.64,0.29,-1.12,-0.50,1.33,1
"ex4882",-0.92,0.08,1.50,-1.30,-0.00,1
"ex4883",-1.04,-0.20,2.28,-0.14,0.44,1
"ex4884",-1.87,-0.48,-1.25,1.08,0.83,1
"ex4885",-0.82,-0.56,0.35,-0.21,-0.64,1
"ex4886",1.02,1.80,1.83,-1.29,1.12,0
"ex4887",-1.64,-0.18,1.05,0.17,-0.80,2
"ex4888",1.04,0.01,0.44,-0.61,0.97,0
"ex4889",-1.23,-0.25,0.03,1.58,-0.44,1
"ex4890",-0.62,0.67,-0.96,-0.05,-0.58,1
"ex4891",2.57,2.39,2.11,-0.92,-1.40,2
"ex4892",0.50,-0.95,0.20,-0.36,0.36,2
"ex4893",1.19,-1.40,-0.05,-0.35,1.67,0
"ex4894",-0.08,0.79,0.17,1.47,0.14,2
"ex4895",1.18,0.08,-0.10,1.45,1.01,2
"ex4896",-1.49,-2.20,0.59,-0.03,-0.61,1
"ex4897",-0.23,-1.69,2.09,-0.01,-0.19,0
"ex4898",-0.12,0.17,1.37,-0.07,2.20,2
"ex4899",0.18,-1.56,-1.36,0.83,0.08,0
"ex4900",-0.09,-0.47,0.52,-0.38,-0.67,0
"ex4901",0.09,0.27,-0.92,0.01,0.05,0
"ex4902",-0.90,-0.92,0.44,-0.04,-0.44,2
"ex4903",1.31,-0.88,-0.29,-1.13,0.38,0
"ex4904",-0.45,1.85,0.99,-2.98,0.20,1
"ex4905",-1.36,0.43,1.63,1.23,-0.08,1
"ex4906",0.25,-0.53,-2.10,0.47,0.93,2
"ex4907",0.47,-1.16,0.23,0.24,-0.96,1
"ex4908",-1.40,-0.15,-0.90,0.92,0.58,2
"ex4909",1.03,0.62,1.24,0.01,2.00,0
"ex4910",0.26,-0.84,1.10,-1.17,-1.01,2
"ex4911",0.46,0.40,0.42,-0.77,0.07,0
"ex4912",-1.19,0.85,-0.00,0.12,0.26,1
"ex4913",0.19,1.24,-0.45,0.11,-0.76,0
"ex4914",-1.47,0.68,0.95,-0.80,-0.00,1
"ex4915",0.33,-0.93,-0.58,-0.34,0.34,1
"ex4916",0.80,0.58,-0.63,-0.67,0.33,0
"ex4917",2.44,0.98,-0.56,0.10,1.04,0
"ex4918",1.01,-0.22,-0.66,0.52,-0.03,2
"ex4919",-0.68,0.45,0.98,0.65,1.13,1
"ex4920",-0.18,-0.12,0.46,-0.37,0.44,1
"ex4921",0.83,1.01,0.07,-0.32,1.88,0
"ex4922",0.62,-0.71,-0.84,0.45,-0.75,2
"ex4923",-0.79,0.59,-0.14,-0.24,-1.41,2
"ex4924",-0.45,1.03,0.41,0.31,-1.55,1
"ex4925",0.38,0.81,0.06,-0.61,-0.99,2
"ex4926",0.05,1.17,-0.14,0.18,-0.56,0
"ex4927",-0.93,-0.01,1.52,0.66,0.20,1
"ex4928",0.68,-0.38,1.03,-1.00,0.29,2
"ex4929",-0.91,-1.07,-0.09,0.85,-0.06,2
"ex4930",1.68,0.18,-0.05,-0.95,0.56,2
"ex4931",0.66,0.70,1.11,0.01,-1.04,0
"ex4932",1.51,-2.50,0.25,-0.21,0.25,0
"ex4933",2.61,1.83,-0.64,1.16,-0.18,0
"ex4934",0.67,-1.01,0.06,0.25,-2.30,1
"ex4935",0.02,1.12,0.01,0.74,-1.68,2
"ex4936",-1.42,-0.15,2.21,-0.88,0.73,2
"ex4937",0.41,1.37,0.12,0.67,-2.28,1
"ex4938",0.24,-1.55,0.04,-0.48,-0.98,2
"ex4939",-2.12,0.77,0.98,1.81,2.33,1
"ex4940",-0.38,1.18,0.86,0.30,-0.44,2
"ex4941",0.55,-0.71,0.43,-2.01,0.46,2
"ex4942",-1.06,-0.50,-1.28,-1.10,0.30,1
"ex4943",0.83,-1.77,0.18,1.09,-0.95,2
"ex4944",1.26,-1.04,0.16,-0.91,1.88,0
"ex4945",0.39,0.77,0.49,0.35,-0.38,0
"ex4946",-1.99,0.03,0.40,-0.80,-0.55,0
"ex4947",-0.42,0.79,-1.08,0.19,-0.68,1
"ex4948",0.91,0.41,0.00,0.54,0.98,1
"ex4949",1.84,2.02,-0.25,1.17,-0.19,2
"ex4950",0.92,1.23,-0.61,-1.73,0.18,1
"ex4951",-1.29,0.69,0.47,0.17,-0.39,1
"ex4952",-0.85,-0.21,0.15,-0.35,0.13,2
"ex4953",-1.31,1.10,-0.52,-0.31,0.72,0
"ex4954",-1.26,-0.70,0.69,-0.08,-0.50,1
"ex4955",0.02,-0.60,-1.52,0.35,-1.48,1
"ex4956",-1.43,-1.94,-0.22,0.43,-0.83,1
"ex4957",-0.13,-1.55,0.31,-1.20,0.51,0
"ex4958",-0.26,1.85,0.35,0.45,0.93,2
"ex4959",1.79,-0.62,1.12,1.48,-0.06,0
"ex4960",-0.07,0.47,-0.14,-0.07,-0.39,2
"ex4961",-0.23,0.80,-0.52,-0.25,-2.00,2
"ex4962",-0.84,-1.57,-0.99,-0.87,1.38,1
"ex4963",0.96,-0.69,-0.26,1.54,-1.27,2
"ex4964",-0.35,-0.97,0.72,2.10,-2.23,1
"ex4965",-0.44,1.07,2.86,1.30,-2.28,2
"ex4966",2.15,-1.28,-0.54,1.23,1.00,1
"ex4967",-0.14,-0.47,0.44,-0.01,1.65,1
"ex4968",0.55,1.12,-0.85,0.64,0.50,1
"ex4969",0.07,0.46,-1.32,0.31,-0.26,1
"ex4970",-0.91,-0.61,0.59,2.35,-0.44,2
"ex4971",-1.23,-0.86,-0.18,0.77,-0.02,1
"ex4972",-0.19,0.72,-0.57,0.34,-0.38,2
"ex4973",-0.55,-0.70,0.49,1.35,-0.28,0
"ex4974",-0.85,-0.39,1.01,-1.65,0.19,2
"ex4975",-1.30,-0.98,-1.15,-0.50,0.43,1
"ex4976",-0.26,-0.19,-0.56,1.25,-0.21,1
"ex4977",1.15,-1.03,0.24,-0.10,0.42,1
"ex4978",-0.23,0.50,0.80,1.91,-0.67,2
"ex4979",0.38,-1.17,1.54,1.64,1.20,1
"ex4980",-0.02,-2.37,-0.88,-1.27,0.84,0
"ex4981",0.01,0.22,-0.38,-0.50,-0.36,2
"ex4982",-1.01,-0.62,-0.28,-2.54,-0.02,2
"ex4983",1.89,0.12,0.73,1.36,-2.02,1
"ex4984",0.08,-0.59,0.50,-0.94,1.08,0
"ex4985",-0.31,-0.42,-0.79,0.99,-1.35,0
"ex4986",0.68,0.33,-0.81,0.65,1.28,0
"ex4987",-0.69,0.05,-0.77,0.67,-0.19,0
"ex4988",-0.48,0.21,-0.80,-0.33,-0.14,2
"ex4989",0.40,0.73,-1.01,0.74,1.50,2
"ex4990",-0.07,1.46,0.06,-1.19,0.12,2
"ex4991",0.30,0.57,0.34,-0.37,1.36,0
"ex4992",0.26,1.12,1.21,-0.51,1.05,2
"ex4993",-0.08,1.05,1.12,-0.94,-0.14,1
"ex4994",0.18,1.28,-0.43,-0.23,1.96,2
"ex4995",-0.81,-0.27,-1.57,1.90,0.72,2
"ex4996",-1.14,0.45,0.18,1.44,1.11,0
"ex4997",1.37,-1.02,0.71,-0.10,0.36,1
"ex4998",-0.64,1.19,-0.38,-0.70,-0.85,2
"ex4999",-1.30,-0.20,-0.63,-0.92,0.63,0
"ex5000",0.24,-1.13,1.01,0.06,0.61,0
